Rb2 Na1 Ga1 F6
1.0
   0.0000000000000000    4.2845310000000003    4.2845310000000003
   4.2845310000000003    0.0000000000000000    4.2845310000000003
   4.2845310000000003    4.2845310000000003    0.0000000000000000
Rb Na Ga F
2 1 1 6
direct
   0.7500000000000000    0.7500000000000000    0.7500000000000000 Rb
   0.2500000000000000    0.2500000000000000    0.2500000000000000 Rb
   0.5000000000000000    0.5000000000000000    0.5000000000000000 Na
   0.0000000000000000    0.0000000000000000    0.0000000000000000 Ga
   0.7737720000000000    0.2262279999999990    0.2262279999999990 F
   0.2262279999999990    0.2262279999999990    0.7737720000000000 F
   0.2262279999999990    0.7737720000000000    0.7737720000000000 F
   0.2262279999999990    0.7737720000000000    0.2262279999999990 F
   0.7737720000000000    0.2262279999999990    0.7737720000000000 F
   0.7737720000000000    0.7737720000000000    0.2262279999999990 F
