Cr4 Sb4 Se12
1.0
   3.8254144200000000    0.0000000000000000    0.0000000000000000
   0.0000000000000000    9.3279441300000006    0.0000000000000000
   0.0000000000000000    0.0000000000000000   13.5253427100000003
Cr Sb Se
4 4 12
direct
   0.7500000000000000    0.1556988900000000    0.4561475500000000 Cr
   0.2500000000000000    0.8443011100000000    0.5438524500000000 Cr
   0.7500000000000000    0.6556988900000000    0.0438524500000000 Cr
   0.2500000000000000    0.3443011100000000    0.9561475500000001 Cr
   0.2500000000000000    0.4689996300000000    0.3442501200000000 Sb
   0.7500000000000000    0.5310003700000000    0.6557498800000000 Sb
   0.2500000000000000    0.9689996300000000    0.1557498800000000 Sb
   0.7500000000000000    0.0310003700000000    0.8442501200000000 Sb
   0.7500000000000000    0.1735490700000000    0.0158712999999990 Se
   0.2500000000000000    0.8264509300000000    0.9841287000000000 Se
   0.7500000000000000    0.6735490700000000    0.4841286999999990 Se
   0.2500000000000000    0.3264509300000000    0.5158712999999990 Se
   0.2500000000000000    0.2127188200000000    0.7895280000000000 Se
   0.7500000000000000    0.7872811800000000    0.2104720000000000 Se
   0.2500000000000000    0.7127188200000000    0.7104720000000000 Se
   0.7500000000000000    0.2872811800000000    0.2895280000000000 Se
   0.7500000000000000    0.4983404300000000    0.8934744400000000 Se
   0.2500000000000000    0.5016595700000001    0.1065255600000000 Se
   0.7500000000000000    0.9983404300000001    0.6065255600000000 Se
   0.2500000000000000    0.0016595700000000    0.3934744400000000 Se
