Rb2 Li1 Bi1 F6
1.0
   0.0000000000000000    4.4266209999999999    4.4266209999999999
   4.4266209999999999    0.0000000000000000    4.4266209999999999
   4.4266209999999999    4.4266209999999999    0.0000000000000000
Rb Li Bi F
2 1 1 6
direct
   0.2500000000000000    0.2500000000000000    0.2500000000000000 Rb
   0.7500000000000000    0.7500000000000000    0.7500000000000000 Rb
   0.5000000000000000    0.5000000000000000    0.5000000000000000 Li
   0.0000000000000000    0.0000000000000000    0.0000000000000000 Bi
   0.2575139999999990    0.2575139999999990    0.7424860000000000 F
   0.2575139999999990    0.7424860000000000    0.7424860000000000 F
   0.7424860000000000    0.7424860000000000    0.2575139999999990 F
   0.2575139999999990    0.7424860000000000    0.2575139999999990 F
   0.7424860000000000    0.2575139999999990    0.7424860000000000 F
   0.7424860000000000    0.2575139999999990    0.2575139999999990 F
