Mg3 As1 N1
1.0
   4.2062857800000000    0.0000000000000000   -0.0000000000000000
   0.0000000000000000    4.2062857800000000    0.0000000000000000
   0.0000000000000000    0.0000000000000000    4.2062857800000000
Mg As N
3 1 1
direct
   0.5000000000000000   -0.0000000000000000   -0.0000000000000000 Mg
  -0.0000000000000000    0.5000000000000000   -0.0000000000000000 Mg
  -0.0000000000000000    0.0000000000000000    0.5000000000000000 Mg
   0.5000000000000000    0.5000000000000000    0.5000000000000000 As
   0.0000000000000000   -0.0000000000000000    0.0000000000000000 N
