Ba12 Nb8 Ni4 O36
1.0
  -2.9224340000000000   -5.0618020000000001   -0.0000010000000000
 -17.5334150000000015   10.1229139999999997   -0.0000870000000000
  -0.0000270000000000    0.0000140000000000   -7.1798690000000001
Ba Nb Ni O
12 8 4 36
direct
   0.0000000000000000    0.9999889999999991    0.0000020000000000 Ba
   0.5000010000000000    0.2500010000000000    0.0000160000000000 Ba
   0.9999990000000000    0.4999980000000000    0.9999830000000000 Ba
   0.5000000000000000    0.7500100000000001    0.9999979999999991 Ba
   0.5000000000000000    0.0833629999999990    0.3348640000000000 Ba
   0.0000010000000000    0.3333230000000000    0.3348290000000000 Ba
   0.5000000000000000    0.5833060000000000    0.3348549999999990 Ba
   0.0000010000000000    0.8333459999999990    0.3348589999999990 Ba
   0.9999979999999991    0.1666939999999990    0.6651450000000000 Ba
   0.5000000000000000    0.4166769999999990    0.6651730000000000 Ba
   0.9999979999999991    0.6666360000000000    0.6651359999999999 Ba
   0.5000000000000000    0.9166529999999991    0.6651400000000001 Ba
   0.5000000000000000    0.0833290000000000    0.8213670000000000 Nb
   0.9999990000000000    0.3333310000000000    0.8214239999999990 Nb
   0.5000000000000000    0.5833520000000000    0.8213250000000000 Nb
   0.9999990000000000    0.8333429999999999    0.8212570000000000 Nb
   0.0000000000000000    0.1666480000000000    0.1786760000000000 Nb
   0.5000010000000000    0.4166689999999990    0.1785780000000000 Nb
   0.0000000000000000    0.6666710000000000    0.1786319999999990 Nb
   0.5000010000000000    0.9166559999999990    0.1787419999999990 Nb
   0.4999929999999990    0.2502720000000000    0.5002710000000000 Ni
   0.0000070000000000    0.4997370000000000    0.4997250000000000 Ni
   0.0000010000000000    0.0002980000000000    0.5001890000000000 Ni
   0.5000000000000000    0.7497070000000000    0.4998140000000000 Ni
   0.2500370000000000    0.1250030000000000    0.9999840000000000 O
   0.7500000000000000    0.3750000000000000    0.0000000000000000 O
   0.2499640000000000    0.6249960000000000    0.0000170000000000 O
   0.7500000000000000    0.8750000000000000    0.0000000000000000 O
   0.7499650000000000    0.1250030000000000    0.9999830000000000 O
   0.2499990000000000    0.3750000000000000    0.0000010000000000 O
   0.7500359999999990    0.6249960000000000    0.0000170000000000 O
   0.2500000000000000    0.8749990000000000    0.0000000000000000 O
   0.5000010000000000    0.0000060000000000    0.9999870000000000 O
   0.0000000000000000    0.2500010000000000    0.0000110000000000 O
   0.5000000000000000    0.4999989999999990    0.9999889999999991 O
   0.9999990000000000    0.7499930000000000    0.0000130000000000 O
   0.5000000000000000    0.1645700000000000    0.6736369999999990 O
   0.0000020000000000    0.4145300000000000    0.6736620000000000 O
   0.5000000000000000    0.6645070000000000    0.6736759999999991 O
   0.0000010000000000    0.9145439999999990    0.6736900000000000 O
   0.0000000000000000    0.0854920000000000    0.3263250000000000 O
   0.5000000000000000    0.3354700000000000    0.3263370000000000 O
   0.0000000000000000    0.5854290000000000    0.3263640000000000 O
   0.5000000000000000    0.8354539999999990    0.3263109999999990 O
   0.7435649999999990    0.0427620000000000    0.6736750000000000 O
   0.2435389999999990    0.2927520000000000    0.6737179999999990 O
   0.7436149999999990    0.5427160000000000    0.6736550000000000 O
   0.2436320000000000    0.7927069999999991    0.6736470000000000 O
   0.7563850000000000    0.2072840000000000    0.3263439999999990 O
   0.2564600000000000    0.4572480000000000    0.3262819999999990 O
   0.7564339999999991    0.7072370000000000    0.3263230000000000 O
   0.2563690000000000    0.9572919999999990    0.3263520000000000 O
   0.2564340000000000    0.0427620000000000    0.6736759999999991 O
   0.7564600000000000    0.2927520000000000    0.6737179999999990 O
   0.2563860000000000    0.5427160000000000    0.6736550000000000 O
   0.7563679999999990    0.7927069999999991    0.6736470000000000 O
   0.2436130000000000    0.2072840000000000    0.3263439999999990 O
   0.7435400000000001    0.4572480000000000    0.3262819999999990 O
   0.2435649999999990    0.7072370000000000    0.3263240000000000 O
   0.7436309999999990    0.9572919999999990    0.3263520000000000 O
