Ca6 Ti4 O14
1.0
   2.7078894099999999   -9.7214627500000006    0.0000000000000000
   2.7078894099999999    9.7214627500000006    0.0000000000000000
   0.0000000000000000    0.0000000000000000    5.4565097299999996
Ca Ti O
6 4 14
direct
   0.2541954500000000    0.2541954500000000    0.9615864600000000 Ca
   0.7458045500000000    0.7458045500000000    0.4615864600000000 Ca
   0.5542158300000000    0.9291825500000001    0.5371228400000000 Ca
   0.4457841700000000    0.0708174500000000    0.0371228400000000 Ca
   0.9291825500000001    0.5542158300000000    0.5371228400000000 Ca
   0.0708174500000000    0.4457841700000000    0.0371228400000000 Ca
   0.1503104900000000    0.3493549900000000    0.5040851200000001 Ti
   0.8496895100000000    0.6506450100000000    0.0040851200000000 Ti
   0.6506450100000000    0.8496895100000000    0.0040851200000000 Ti
   0.3493549900000000    0.1503104900000000    0.5040851200000001 Ti
   0.1509964300000000    0.9272452700000000    0.7864763100000001 O
   0.8490035700000000    0.0727547300000000    0.2864763100000000 O
   0.0727547300000000    0.8490035700000000    0.2864763100000000 O
   0.9272452700000000    0.1509964300000000    0.7864763100000001 O
   0.6228629000000000    0.4542654300000000    0.7083886300000000 O
   0.3771371000000000    0.5457345700000000    0.2083886300000000 O
   0.5457345700000000    0.3771371000000000    0.2083886300000000 O
   0.4542654300000000    0.6228629000000000    0.7083886300000000 O
   0.8845790600000000    0.4894106600000000    0.9800939999999990 O
   0.1154209400000000    0.5105893400000000    0.4800939999999990 O
   0.8210964400000000    0.8210964400000000    0.0144787400000000 O
   0.1789035600000000    0.1789035600000000    0.5144787400000000 O
   0.4894106600000000    0.8845790600000000    0.9800939999999990 O
   0.5105893400000000    0.1154209400000000    0.4800939999999990 O
