K3 Mo1 F6
1.0
   5.5070386100000004    0.0000000000000000    3.1794891600000001
   1.8356798699999990    5.1920861499999997    3.1794901700000002
  -0.0000010100000000    0.0000010000000000    6.3589803299999996
K Mo F
3 1 6
direct
   0.5000000000000000    0.5000000000000000    0.5000000000000000 K
   0.7500000000000000    0.7500000000000000    0.7500000000000000 K
   0.2500000000000000    0.2500000000000000    0.2500000000000000 K
   0.0000000000000000   -0.0000000000000000    0.0000000000000000 Mo
   0.2274797800000000    0.7725202200000000    0.7725202200000000 F
   0.2274797800000000    0.7725202200000000    0.2274797800000000 F
   0.7725202200000000    0.2274797800000000    0.7725202200000000 F
   0.2274797800000000    0.2274797800000000    0.7725202200000000 F
   0.7725202200000000    0.2274797800000000    0.2274797800000000 F
   0.7725202200000000    0.7725202200000000    0.2274797800000000 F
