Tm4 Ga4 O12
1.0
   5.2409129999999999    0.0000000000000000    0.0000000000000000
   0.0000000000000000    5.5706600000000002    0.0000000000000000
   0.0000000000000000    0.0000000000000000    7.5997250000000003
Tm Ga O
4 4 12
direct
   0.0218219999999990    0.0713770000000000    0.7500000000000000 Tm
   0.4781780000000000    0.5713770000000000    0.7500000000000000 Tm
   0.5218220000000000    0.4286230000000000    0.2500000000000000 Tm
   0.9781780000000000    0.9286230000000000    0.2500000000000000 Tm
   0.0000000000000000    0.5000000000000000    0.5000000000000000 Ga
   0.5000000000000000    0.0000000000000000    0.5000000000000000 Ga
   0.5000000000000000    0.0000000000000000    0.0000000000000000 Ga
   0.0000000000000000    0.5000000000000000    0.0000000000000000 Ga
   0.1208090000000000    0.5456110000000000    0.2500000000000000 O
   0.1915970000000000    0.8056580000000000    0.5615220000000000 O
   0.1915970000000000    0.8056580000000000    0.9384779999999990 O
   0.3084030000000000    0.3056580000000000    0.9384779999999990 O
   0.3084030000000000    0.3056580000000000    0.5615220000000000 O
   0.3791910000000000    0.0456110000000000    0.2500000000000000 O
   0.6208089999999991    0.9543889999999990    0.7500000000000000 O
   0.6915970000000000    0.6943420000000000    0.0615220000000000 O
   0.6915970000000000    0.6943420000000000    0.4384780000000000 O
   0.8084030000000000    0.1943420000000000    0.4384780000000000 O
   0.8084030000000000    0.1943420000000000    0.0615220000000000 O
   0.8791909999999999    0.4543890000000000    0.7500000000000000 O
