Cs2 K1 Rh1 F6
1.0
  -4.6212859999999996   -4.6212859999999996    0.0000000000000000
  -4.6212859999999996    0.0000000000000000   -4.6212859999999996
   0.0000000000000000   -4.6212859999999996   -4.6212859999999996
Cs K Rh F
2 1 1 6
direct
   0.2500000000000000    0.2500000000000000    0.2500000000000000 Cs
   0.7500000000000000    0.7500000000000000    0.7500000000000000 Cs
   0.5000000000000000    0.5000000000000000    0.5000000000000000 K
   0.0000000000000000    0.0000000000000000    0.0000000000000000 Rh
   0.7808510000000000    0.7808510000000000    0.2191489999999990 F
   0.2191489999999990    0.7808510000000000    0.7808510000000000 F
   0.2191489999999990    0.2191489999999990    0.7808510000000000 F
   0.7808510000000000    0.2191489999999990    0.7808510000000000 F
   0.2191489999999990    0.7808510000000000    0.2191489999999990 F
   0.7808510000000000    0.2191489999999990    0.2191489999999990 F
