Rb2 Li1 Rh1 F6
1.0
   0.0000000000000000    4.1962260000000002    4.1962260000000002
   4.1962260000000002    0.0000000000000000    4.1962260000000002
   4.1962260000000002    4.1962260000000002    0.0000000000000000
Rb Li Rh F
2 1 1 6
direct
   0.7500000000000000    0.7500000000000000    0.7500000000000000 Rb
   0.2500000000000000    0.2500000000000000    0.2500000000000000 Rb
   0.5000000000000000    0.5000000000000000    0.5000000000000000 Li
   0.0000000000000000    0.0000000000000000    0.0000000000000000 Rh
   0.7580519999999999    0.2419480000000000    0.2419480000000000 F
   0.2419480000000000    0.2419480000000000    0.7580519999999999 F
   0.2419480000000000    0.7580519999999999    0.7580519999999999 F
   0.2419480000000000    0.7580519999999999    0.2419480000000000 F
   0.7580519999999999    0.2419480000000000    0.7580519999999999 F
   0.7580519999999999    0.7580519999999999    0.2419480000000000 F
