Rb2 Na1 Tl1 F6
1.0
   0.0000000000000000    4.4971139999999998    4.4971139999999998
   4.4971139999999998    0.0000000000000000    4.4971139999999998
   4.4971139999999998    4.4971139999999998    0.0000000000000000
Rb Na Tl F
2 1 1 6
direct
   0.7500000000000000    0.7500000000000000    0.7500000000000000 Rb
   0.2500000000000000    0.2500000000000000    0.2500000000000000 Rb
   0.5000000000000000    0.5000000000000000    0.5000000000000000 Na
   0.0000000000000000    0.0000000000000000    0.0000000000000000 Tl
   0.7558210000000000    0.2441789999999990    0.2441789999999990 F
   0.2441789999999990    0.2441789999999990    0.7558210000000000 F
   0.2441789999999990    0.7558210000000000    0.7558210000000000 F
   0.2441789999999990    0.7558210000000000    0.2441789999999990 F
   0.7558210000000000    0.2441789999999990    0.7558210000000000 F
   0.7558210000000000    0.7558210000000000    0.2441789999999990 F
