Sr4 Ti2 Mn2 O12
1.0
  -5.5073770000000000    0.0000000000000000    0.0000000000000000
   2.7536890000000001   -8.2610659999999996   -3.8958629999999999
   2.7536890000000001   -2.7536890000000001    3.8958629999999999
Sr Ti Mn O
4 2 2 12
direct
   0.3750000000000000    0.1250000000000000    0.6250000000000000 Sr
   0.8750000000000000    0.6250000000000000    0.1250000000000000 Sr
   0.1250000000000000    0.3750000000000000    0.8750000000000000 Sr
   0.6250000000000000    0.8750000000000000    0.3750000000000000 Sr
   0.7500000000000000    0.2500000000000000    0.2500000000000000 Ti
   0.2500000000000000    0.7500000000000000    0.7500000000000000 Ti
   0.5000000000000000    0.5000000000000000    0.5000000000000000 Mn
   0.0000000000000000    0.0000000000000000    0.0000000000000000 Mn
   0.6237100000000001    0.3762900000000000    0.8711310000000000 O
   0.1237100000000000    0.8762900000000000    0.3711310000000000 O
   0.8762900000000000    0.1237100000000000    0.6288690000000000 O
   0.3762900000000000    0.6237100000000001    0.1288689999999990 O
   0.1323600000000000    0.3727270000000000    0.3727270000000000 O
   0.6323600000000000    0.8727269999999990    0.8727269999999990 O
   0.3676400000000000    0.1272730000000000    0.1272730000000000 O
   0.8676400000000001    0.6272730000000000    0.6272730000000000 O
   0.6343620000000000    0.3798160000000000    0.3798160000000000 O
   0.1343619999999990    0.8798159999999990    0.8798159999999990 O
   0.8656379999999990    0.1201840000000000    0.1201840000000000 O
   0.3656379999999990    0.6201840000000000    0.6201840000000000 O
