Mg4 Se4 O12
1.0
   5.0164655099999997    0.0000000000000000    0.0000000000000000
  -0.0000000000000000    5.9172801200000000    0.0000000000000000
   0.0000000000000000    0.0000000000000000    7.6476300400000001
Mg Se O
4 4 12
direct
   0.5000000000000000    0.0000000000000000   -0.0000000000000000 Mg
   0.0000000000000000    0.5000000000000000   -0.0000000000000000 Mg
   0.0000000000000000    0.5000000000000000    0.5000000000000000 Mg
   0.5000000000000000    0.0000000000000000    0.5000000000000000 Mg
   0.9819909000000000    0.0202871100000000    0.2500000000000000 Se
   0.4819909000000000    0.4797128900000000    0.7500000000000000 Se
   0.5180091000000000    0.5202871100000001    0.2500000000000000 Se
   0.0180091000000000    0.9797128900000001    0.7500000000000000 Se
   0.8610346600000001    0.1819475500000000    0.4217962999999990 O
   0.3610346600000000    0.3180524500000000    0.5782037000000000 O
   0.6389653400000000    0.6819475500000001    0.0782037000000000 O
   0.1389653400000000    0.8180524500000000    0.9217963000000000 O
   0.1389653400000000    0.8180524500000000    0.5782037000000000 O
   0.6389653400000000    0.6819475500000001    0.4217962999999990 O
   0.3610346600000000    0.3180524500000000    0.9217963000000000 O
   0.8610346600000001    0.1819475500000000    0.0782037000000000 O
   0.3208628700000000    0.0684747800000000    0.2500000000000000 O
   0.8208628700000000    0.4315252200000000    0.7500000000000000 O
   0.1791371300000000    0.5684747800000000    0.2500000000000000 O
   0.6791371300000000    0.9315252200000000    0.7500000000000000 O
