Rb2 Na1 As1 F6
1.0
  -0.0000000000000000    4.3001039600000004    4.3001039600000004
   4.3001039600000004   -0.0000000000000000    4.3001039600000004
   4.3001039600000004    4.3001039600000004    0.0000000000000000
Rb Na As F
2 1 1 6
direct
   0.7500000000000000    0.7500000000000000    0.7500000000000000 Rb
   0.2500000000000000    0.2500000000000000    0.2500000000000000 Rb
   0.5000000000000000    0.5000000000000000    0.5000000000000000 Na
   0.0000000000000000   -0.0000000000000000   -0.0000000000000000 As
   0.7611990400000000    0.2388009600000000    0.2388009600000000 F
   0.2388009600000000    0.2388009600000000    0.7611990400000000 F
   0.2388009600000000    0.7611990400000000    0.7611990400000000 F
   0.2388009600000000    0.7611990400000000    0.2388009600000000 F
   0.7611990400000000    0.2388009600000000    0.7611990400000000 F
   0.7611990400000000    0.7611990400000000    0.2388009600000000 F
