K4 Ca4 F12
1.0
   6.1277735199999999    0.0000000000000000    0.0000000000000000
  -0.0000000000000000    6.2206259499999996    0.0000000000000000
   0.0000000000000000    0.0000000000000000    8.7157999200000003
K Ca F
4 4 12
direct
   0.4911876800000000    0.0396891500000000    0.2500000000000000 K
   0.9911876800000000    0.4603108500000000    0.7500000000000000 K
   0.0088123200000000    0.5396891500000001    0.2500000000000000 K
   0.5088123200000000    0.9603108500000000    0.7500000000000000 K
   0.0000000000000000    0.0000000000000000   -0.0000000000000000 Ca
   0.5000000000000000    0.5000000000000000   -0.0000000000000000 Ca
   0.5000000000000000    0.5000000000000000    0.5000000000000000 Ca
   0.0000000000000000    0.0000000000000000    0.5000000000000000 Ca
   0.2067496100000000    0.2919453200000000    0.4570014300000000 F
   0.7067496100000000    0.2080546800000000    0.5429985700000000 F
   0.2932503900000000    0.7919453200000001    0.0429985700000000 F
   0.7932503900000000    0.7080546800000000    0.9570014300000000 F
   0.7932503900000000    0.7080546800000000    0.5429985700000000 F
   0.2932503900000000    0.7919453200000001    0.4570014300000000 F
   0.7067496100000000    0.2080546800000000    0.9570014300000000 F
   0.2067496100000000    0.2919453200000000    0.0429985700000000 F
   0.9183412500000000    0.9714619999999990    0.2500000000000000 F
   0.4183412500000000    0.5285380000000000    0.7500000000000000 F
   0.5816587500000000    0.4714620000000000    0.2500000000000000 F
   0.0816587500000000    0.0285379999999990    0.7500000000000000 F
