K2 Li1 Ga1 F6
1.0
   0.0000000000000000    4.0542100000000003    4.0542100000000003
   4.0542100000000003    0.0000000000000000    4.0542100000000003
   4.0542100000000003    4.0542100000000003    0.0000000000000000
K Li Ga F
2 1 1 6
direct
   0.7500000000000000    0.7500000000000000    0.7500000000000000 K
   0.2500000000000000    0.2500000000000000    0.2500000000000000 K
   0.5000000000000000    0.5000000000000000    0.5000000000000000 Li
   0.0000000000000000    0.0000000000000000    0.0000000000000000 Ga
   0.7615060000000000    0.2384939999999990    0.2384939999999990 F
   0.2384939999999990    0.2384939999999990    0.7615060000000000 F
   0.2384939999999990    0.7615060000000000    0.7615060000000000 F
   0.2384939999999990    0.7615060000000000    0.2384939999999990 F
   0.7615060000000000    0.2384939999999990    0.7615060000000000 F
   0.7615060000000000    0.7615060000000000    0.2384939999999990 F
