Rb2 Na1 Cu1 F6
1.0
   0.0000000000000000    4.2623730000000002    4.2623730000000002
   4.2623730000000002    0.0000000000000000    4.2623730000000002
   4.2623730000000002    4.2623730000000002    0.0000000000000000
Rb Na Cu F
2 1 1 6
direct
   0.2500000000000000    0.2500000000000000    0.2500000000000000 Rb
   0.7500000000000000    0.7500000000000000    0.7500000000000000 Rb
   0.5000000000000000    0.5000000000000000    0.5000000000000000 Na
   0.0000000000000000    0.0000000000000000    0.0000000000000000 Cu
   0.7724590000000000    0.2275410000000000    0.2275410000000000 F
   0.2275410000000000    0.7724590000000000    0.7724590000000000 F
   0.2275410000000000    0.7724590000000000    0.2275410000000000 F
   0.7724590000000000    0.2275410000000000    0.7724590000000000 F
   0.2275410000000000    0.2275410000000000    0.7724590000000000 F
   0.7724590000000000    0.7724590000000000    0.2275410000000000 F
