Na4 Li2 Al2 H12
1.0
   5.1276328700000002    0.0000000000000000    0.0000746800000000
   0.0000000000000000    5.1560175499999996    0.0000000000000000
   0.0038928100000000    0.0000000000000000    7.2710445400000001
Na Li Al H
4 2 2 12
direct
   0.4961470600000000    0.0225339000000000    0.7499438600000000 Na
   0.0038529400000000    0.5225339000000000    0.7500561400000000 Na
   0.5038529400000000    0.9774661000000000    0.2500561400000000 Na
   0.9961470600000000    0.4774661000000000    0.2499438600000000 Na
  -0.0000000000000000   -0.0000000000000000    0.5000000000000000 Li
   0.5000000000000000    0.5000000000000000    0.0000000000000000 Li
  -0.0000000000000000   -0.0000000000000000    0.0000000000000000 Al
   0.5000000000000000    0.5000000000000000    0.5000000000000000 Al
   0.7013467800000001    0.2312131300000000    0.4678452700000000 H
   0.7986532200000001    0.7312131300000000    0.0321547300000000 H
   0.2986532200000000    0.7687868700000000    0.5321547300000000 H
   0.2013467800000000    0.2687868700000000    0.9678452700000000 H
   0.7319577800000000    0.2035592300000000    0.0298563200000000 H
   0.7680422200000000    0.7035592300000000    0.4701436800000000 H
   0.2680422200000000    0.7964407700000000    0.9701436800000001 H
   0.2319577800000000    0.2964407700000000    0.5298563200000000 H
   0.0597197200000000    0.0132387300000000    0.2356823100000000 H
   0.4402802800000000    0.5132387300000000    0.2643176900000000 H
   0.9402802800000000    0.9867612700000000    0.7643176900000000 H
   0.5597197200000000    0.4867612700000000    0.7356823100000001 H
