K1 V1 F3
1.0
   4.1293873799999998    0.0000000000000000   -0.0000000000000000
   0.0000000000000000    4.1294032300000003    0.0000000000000000
   0.0000000000000000    0.0000000000000000    4.1292904000000004
K V F
1 1 3
direct
  -0.0000000000000000    0.0000000000000000    0.0000000000000000 K
   0.5000000000000000    0.5000000000000000    0.5000000000000000 V
   0.0000000000000000    0.5000000000000000    0.5000000000000000 F
   0.5000000000000000    0.0000000000000000    0.5000000000000000 F
   0.5000000000000000    0.5000000000000000    0.0000000000000000 F
