Ba4 Hf4 S12
1.0
   7.0191679200000001   -0.0000000000000000    0.0000000000000000
   0.0000000000000000    7.0446663899999997    0.0000000000000000
   0.0000000000000000    0.0000000000000000    9.9759870599999996
Ba Hf S
4 4 12
direct
   0.4929844600000000    0.5371495500000000    0.2500000000000000 Ba
   0.0070155400000000    0.0371495500000000    0.2500000000000000 Ba
   0.5070155400000000    0.4628504500000000    0.7500000000000000 Ba
   0.9929844600000001    0.9628504500000000    0.7500000000000000 Ba
   0.0000000000000000    0.5000000000000000    0.0000000000000000 Hf
   0.5000000000000000    0.0000000000000000    0.5000000000000000 Hf
   0.0000000000000000    0.5000000000000000    0.5000000000000000 Hf
   0.5000000000000000    0.0000000000000000    0.0000000000000000 Hf
   0.9468312900000000    0.4978195600000000    0.2500000000000000 S
   0.5531687100000000    0.9978195600000000    0.2500000000000000 S
   0.0531687100000000    0.5021804400000001    0.7500000000000000 S
   0.4468312900000000    0.0021804400000000    0.7500000000000000 S
   0.7162512500000000    0.7158147400000000    0.9724279300000001 S
   0.7837487500000000    0.2158147400000000    0.5275720700000001 S
   0.2837487500000000    0.2841852600000000    0.4724279300000000 S
   0.2162512500000000    0.7841852600000000    0.0275720700000000 S
   0.2837487500000000    0.2841852600000000    0.0275720700000000 S
   0.2162512500000000    0.7841852600000000    0.4724279300000000 S
   0.7162512500000000    0.7158147400000000    0.5275720700000001 S
   0.7837487500000000    0.2158147400000000    0.9724279300000001 S
