Cs2 Tl1 Ag1 F6
1.0
   0.0000000000000000    4.6749609999999997    4.6749609999999997
   4.6749609999999997    0.0000000000000000    4.6749609999999997
   4.6749609999999997    4.6749609999999997    0.0000000000000000
Cs Tl Ag F
2 1 1 6
direct
   0.7500000000000000    0.7500000000000000    0.7500000000000000 Cs
   0.2500000000000000    0.2500000000000000    0.2500000000000000 Cs
   0.0000000000000000    0.0000000000000000    0.0000000000000000 Tl
   0.5000000000000000    0.5000000000000000    0.5000000000000000 Ag
   0.7621970000000000    0.2378030000000000    0.2378030000000000 F
   0.2378030000000000    0.2378030000000000    0.7621970000000000 F
   0.2378030000000000    0.7621970000000000    0.7621970000000000 F
   0.2378030000000000    0.7621970000000000    0.2378030000000000 F
   0.7621970000000000    0.2378030000000000    0.7621970000000000 F
   0.7621970000000000    0.7621970000000000    0.2378030000000000 F
