Y4 Cr4 O12
1.0
   5.2454358599999997    0.0000000100000000   -0.0000153900000000
   0.0000000100000000    5.5395878999999999    0.0000012000000000
  -0.0000225700000000    0.0000009100000000    7.5498552600000002
Y Cr O
4 4 12
direct
   0.0183136400000000    0.9317836800000000    0.7500007300000000 Y
   0.5183144900000000    0.5682173300000000    0.2500012400000000 Y
   0.4816860200000000    0.4317816000000000    0.7499985800000000 Y
   0.9816860400000000    0.0682182400000000    0.2499994600000000 Y
   0.4999992400000000    0.0000034100000000    0.5000015000000000 Cr
   0.0000002300000000    0.4999991600000000    0.0000005300000000 Cr
  -0.0000003600000000    0.4999967500000000    0.4999985400000000 Cr
   0.5000000600000000    0.0000005300000000   -0.0000004600000000 Cr
   0.1079199800000000    0.4635053500000000    0.2500137000000000 O
   0.6079205200000000    0.0364952100000000    0.7500135400000000 O
   0.3920787900000000    0.9635050100000000    0.2499860800000000 O
   0.8920791800000000    0.5364951200000000    0.7499869200000000 O
   0.6928082999999990    0.3024498400000000    0.4447444600000000 O
   0.1927825800000000    0.1975797200000000    0.5552526300000000 O
   0.8071919500000000    0.8024485600000000    0.0552555600000000 O
   0.3072163500000000    0.6975792500000000    0.9447474900000000 O
   0.3071921500000000    0.6975504100000001    0.5552556400000001 O
   0.8072176000000000    0.8024204400000000    0.4447474900000000 O
   0.1928069700000000    0.1975514400000000    0.9447443999999990 O
   0.6927832800000000    0.3024209600000000    0.0552529900000000 O
