Ba4 Ta2 Fe2 O12
1.0
  -4.1010780000000002   -4.1010780000000002    0.0000000000000000
   0.0000000000000000    4.1010780000000002   -4.1010780000000002
   4.1010780000000002   -4.1010780000000002   -8.2021560000000004
Ba Ta Fe O
4 2 2 12
direct
   0.8750000000000000    0.7500000000000000    0.3750000000000000 Ba
   0.3750000000000000    0.7500000000000000    0.8750000000000000 Ba
   0.6250000000000000    0.2500000000000000    0.1250000000000000 Ba
   0.1250000000000000    0.2500000000000000    0.6250000000000000 Ba
   0.2500000000000000    0.5000000000000000    0.2500000000000000 Ta
   0.7500000000000000    0.5000000000000000    0.7500000000000000 Ta
   0.5000000000000000    0.0000000000000000    0.5000000000000000 Fe
   0.0000000000000000    0.0000000000000000    0.0000000000000000 Fe
   0.6190410000000000    0.7460270000000000    0.1269860000000000 O
   0.1190410000000000    0.7460270000000000    0.6269859999999990 O
   0.8809589999999990    0.2539730000000000    0.3730139999999990 O
   0.3809590000000000    0.2539730000000000    0.8730140000000000 O
   0.3730139999999990    0.2539730000000000    0.3730139999999990 O
   0.8730140000000000    0.2539730000000000    0.8730140000000000 O
   0.1269860000000000    0.7460270000000000    0.1269860000000000 O
   0.6269859999999990    0.7460270000000000    0.6269859999999990 O
   0.3730139999999990    0.7460270000000000    0.3730139999999990 O
   0.8730140000000000    0.7460270000000000    0.8730140000000000 O
   0.1269860000000000    0.2539730000000000    0.1269860000000000 O
   0.6269859999999990    0.2539730000000000    0.6269859999999990 O
