Cs2 Na1 Bi1 F6
1.0
  -4.6726369999999999   -4.6726369999999999    0.0000000000000000
  -4.6726369999999999    0.0000000000000000   -4.6726369999999999
   0.0000000000000000   -4.6726369999999999   -4.6726369999999999
Cs Na Bi F
2 1 1 6
direct
   0.7500000000000000    0.7500000000000000    0.7500000000000000 Cs
   0.2500000000000000    0.2500000000000000    0.2500000000000000 Cs
   0.5000000000000000    0.5000000000000000    0.5000000000000000 Na
   0.0000000000000000    0.0000000000000000    0.0000000000000000 Bi
   0.2445280000000000    0.7554719999999990    0.7554719999999990 F
   0.2445280000000000    0.2445280000000000    0.7554719999999990 F
   0.7554719999999990    0.2445280000000000    0.2445280000000000 F
   0.7554719999999990    0.2445280000000000    0.7554719999999990 F
   0.2445280000000000    0.7554719999999990    0.2445280000000000 F
   0.7554719999999990    0.7554719999999990    0.2445280000000000 F
