Cs2 Na1 Sc1 F6
1.0
  -4.4964480000000000   -4.4964480000000000    0.0000000000000000
  -4.4964480000000000    0.0000000000000000   -4.4964480000000000
   0.0000000000000000   -4.4964480000000000   -4.4964480000000000
Cs Na Sc F
2 1 1 6
direct
   0.2500000000000000    0.2500000000000000    0.2500000000000000 Cs
   0.7500000000000000    0.7500000000000000    0.7500000000000000 Cs
   0.5000000000000000    0.5000000000000000    0.5000000000000000 Na
   0.0000000000000000    0.0000000000000000    0.0000000000000000 Sc
   0.7714440000000000    0.7714440000000000    0.2285559999999990 F
   0.2285559999999990    0.7714440000000000    0.7714440000000000 F
   0.2285559999999990    0.2285559999999990    0.7714440000000000 F
   0.7714440000000000    0.2285559999999990    0.7714440000000000 F
   0.2285559999999990    0.7714440000000000    0.2285559999999990 F
   0.7714440000000000    0.2285559999999990    0.2285559999999990 F
