Mg1 Ag1 F3
1.0
   3.9882169999999992    0.0000000000000000    0.0000000000000000
   0.0000000000000000    3.9882169999999992    0.0000000000000000
   0.0000000000000000    0.0000000000000000    3.9882169999999992
Mg Ag F
1 1 3
direct
   0.0000000000000000    0.0000000000000000    0.0000000000000000 Mg
   0.5000000000000000    0.5000000000000000    0.5000000000000000 Ag
   0.5000000000000000    0.0000000000000000    0.0000000000000000 F
   0.0000000000000000    0.5000000000000000    0.0000000000000000 F
   0.0000000000000000    0.0000000000000000    0.5000000000000000 F
