Rb2 Na1 Cr1 F6
1.0
  -4.2959470000000000   -4.2959470000000000    0.0000000000000000
  -4.2959470000000000    0.0000000000000000   -4.2959470000000000
   0.0000000000000000   -4.2959470000000000   -4.2959470000000000
Rb Na Cr F
2 1 1 6
direct
   0.2500000000000000    0.2500000000000000    0.2500000000000000 Rb
   0.7500000000000000    0.7500000000000000    0.7500000000000000 Rb
   0.5000000000000000    0.5000000000000000    0.5000000000000000 Na
   0.0000000000000000    0.0000000000000000    0.0000000000000000 Cr
   0.2281700000000000    0.7718300000000000    0.2281700000000000 F
   0.2281700000000000    0.7718300000000000    0.7718300000000000 F
   0.7718300000000000    0.2281700000000000    0.2281700000000000 F
   0.7718300000000000    0.7718300000000000    0.2281700000000000 F
   0.7718300000000000    0.2281700000000000    0.7718300000000000 F
   0.2281700000000000    0.2281700000000000    0.7718300000000000 F
