ADDGRID = True
ALGO = Fast
EDIFF = 1e-06
ENCUT = 520.0
IBRION = -1
ISMEAR = 0
ISPIN = 2
ISYM = 0
LASPH = True
LCALCEPS = False
LCALCPOL = True
LCHARG = False
LDAU = True
LDAUJ = 0 0 0
LDAUL = 2 0 0
LDAUPRINT = 1
LDAUTYPE = 2
LDAUU = 3.9 0 0
LMAXMIX = 6
LORBIT = 11
LREAL = False
LWAVE = False
MAGMOM = 1*4.625 1*-0.002 3*0.058
NELM = 100
NSW = 0
PREC = Accurate
SIGMA = 0.05
SYMPREC = 1e-08
