Na4 Nb4 O12
1.0
   5.5300077500000002    0.0000000000000000    0.0000000000000000
   0.0000000000000000    5.6054651099999999    0.0000000000000000
   0.0000000000000000    0.0000000000000000    7.7906726200000005
Na Nb O
4 4 12
direct
   0.7599635000000000    0.2496145200000000    0.5000000000000000 Na
   0.2400364999999990    0.7496145200000001    0.5000000000000000 Na
   0.7627269900000000    0.2877307000000000   -0.0000000000000000 Na
   0.2372730100000000    0.7877307000000000   -0.0000000000000000 Na
   0.7430505400000000    0.7711818600000000    0.2508223900000000 Nb
   0.2569494600000000    0.2711818600000000    0.7491776100000000 Nb
   0.2569494600000000    0.2711818600000000    0.2508223900000000 Nb
   0.7430505400000000    0.7711818600000000    0.7491776100000000 Nb
   0.9543458400000000    0.5081912600000000    0.7125700600000000 O
   0.0456541600000000    0.0081912600000000    0.2874299400000000 O
   0.0456541600000000    0.0081912600000000    0.7125700600000000 O
   0.9543458400000000    0.5081912600000000    0.2874299400000000 O
   0.5461934200000000    0.0952540700000000    0.7847801300000000 O
   0.4538065800000000    0.5952540700000000    0.2152198700000000 O
   0.4538065800000000    0.5952540700000000    0.7847801300000000 O
   0.5461934200000000    0.0952540700000000    0.2152198700000000 O
   0.1813821900000000    0.2951806600000000   -0.0000000000000000 O
   0.8186178100000000    0.7951806600000000   -0.0000000000000000 O
   0.3231177200000000    0.3242177400000000    0.5000000000000000 O
   0.6768822800000001    0.8242177400000000    0.5000000000000000 O
