Ba2 Pb2 O6
1.0
   4.3394810000000001    4.3584300000000002    0.0000000000000000
  -4.3394810000000001    4.3584300000000002    0.0000000000000000
   0.0000000000000000    4.2953310000000000    4.3749989999999999
Ba Pb O
2 2 6
direct
   0.2564940000000000    0.2564940000000000    0.9945830000000000 Ba
   0.7435060000000000    0.7435060000000000    0.0054170000000000 Ba
   0.5000000000000000    0.0000000000000000    0.5000000000000000 Pb
   0.0000000000000000    0.5000000000000000    0.5000000000000000 Pb
   0.8195700000000000    0.8195700000000000    0.4389700000000000 O
   0.1804300000000000    0.1804300000000000    0.5610300000000000 O
   0.2875700000000000    0.7124300000000000    0.0000000000000000 O
   0.7124300000000000    0.2875700000000000    0.0000000000000000 O
   0.2931269999999990    0.7068730000000000    0.5000000000000000 O
   0.7068730000000000    0.2931269999999990    0.5000000000000000 O
