Li1 Tl2 In1 F6
1.0
   0.0000000000000000    4.2840049999999996    4.2840049999999996
   4.2840049999999996    0.0000000000000000    4.2840049999999996
   4.2840049999999996    4.2840049999999996    0.0000000000000000
Li Tl In F
1 2 1 6
direct
   0.5000000000000000    0.5000000000000000    0.5000000000000000 Li
   0.2500000000000000    0.2500000000000000    0.2500000000000000 Tl
   0.7500000000000000    0.7500000000000000    0.7500000000000000 Tl
   0.0000000000000000    0.0000000000000000    0.0000000000000000 In
   0.2478040000000000    0.7521960000000000    0.7521960000000000 F
   0.2478040000000000    0.7521960000000000    0.2478040000000000 F
   0.7521960000000000    0.2478040000000000    0.7521960000000000 F
   0.7521960000000000    0.7521960000000000    0.2478040000000000 F
   0.2478040000000000    0.2478040000000000    0.7521960000000000 F
   0.7521960000000000    0.2478040000000000    0.2478040000000000 F
