Ca4 Hf4 O12
1.0
   5.5464663600000002    0.0000000000000000    0.0000000000000000
  -0.0000000000000000    5.7217728900000004    0.0000000000000000
   0.0000000000000000    0.0000000000000000    7.9497842299999997
Ca Hf O
4 4 12
direct
   0.0127308600000000    0.9497365300000000    0.7500000000000000 Ca
   0.4872691400000000    0.4497365300000000    0.7500000000000000 Ca
   0.5127308600000000    0.5502634700000000    0.2500000000000000 Ca
   0.9872691400000000    0.0502634700000000    0.2500000000000000 Ca
  -0.0000000000000000    0.5000000000000000   -0.0000000000000000 Hf
  -0.0000000000000000    0.5000000000000000    0.5000000000000000 Hf
   0.5000000000000000    0.0000000000000000   -0.0000000000000000 Hf
   0.5000000000000000    0.0000000000000000    0.5000000000000000 Hf
   0.1008850300000000    0.4635588900000000    0.2500000000000000 O
   0.1996715300000000    0.2020589700000000    0.5532756100000000 O
   0.1996715300000000    0.2020589700000000    0.9467243900000000 O
   0.3003284700000000    0.7020589700000001    0.5532756100000000 O
   0.3003284700000000    0.7020589700000001    0.9467243900000000 O
   0.3991149700000000    0.9635588900000001    0.2500000000000000 O
   0.6008850300000000    0.0364411100000000    0.7500000000000000 O
   0.6996715300000000    0.2979410300000000    0.0532756100000000 O
   0.6996715300000000    0.2979410300000000    0.4467243900000000 O
   0.8003284700000001    0.7979410300000001    0.0532756100000000 O
   0.8003284700000001    0.7979410300000001    0.4467243900000000 O
   0.8991149700000001    0.5364411100000001    0.7500000000000000 O
