Ca6 V4 O14
1.0
   2.6820011600000000   -9.6320251599999995    0.0000000000000000
   2.6820011600000000    9.6320251599999995    0.0000000000000000
   0.0000000000000000    0.0000000000000000    5.3468984900000001
Ca V O
6 4 14
direct
   0.2404700800000000    0.2404700800000000    0.2760840500000000 Ca
   0.7595299200000000    0.7595299200000000    0.7760840500000000 Ca
   0.0502355200000000    0.4221442500000000    0.2269452800000000 Ca
   0.9497644800000000    0.5778557500000000    0.7269452800000000 Ca
   0.4221442500000000    0.0502355200000000    0.2269452800000000 Ca
   0.5778557500000000    0.9497644800000000    0.7269452800000000 Ca
   0.8428213999999991    0.6467437300000000    0.2468250500000000 V
   0.1571786000000000    0.3532562700000000    0.7468250500000000 V
   0.3532562700000000    0.1571786000000000    0.7468250500000000 V
   0.6467437300000000    0.8428213999999991    0.2468250500000000 V
   0.6008887800000000    0.9947744100000000    0.2580566900000000 O
   0.3991112200000000    0.0052255900000000    0.7580566900000000 O
   0.0052255900000000    0.3991112200000000    0.7580566900000000 O
   0.9947744100000000    0.6008887800000000    0.2580566900000000 O
   0.4219717400000000    0.6374254100000000    0.9693917999999990 O
   0.5780282600000000    0.3625745900000000    0.4693917999999990 O
   0.3625745900000000    0.5780282600000000    0.4693917999999990 O
   0.6374254100000000    0.4219717400000000    0.9693917999999990 O
   0.9430562700000000    0.1159159999999990    0.0298206900000000 O
   0.0569437300000000    0.8840840000000000    0.5298206900000000 O
   0.6950431400000000    0.6950431400000000    0.2418349400000000 O
   0.3049568600000000    0.3049568600000000    0.7418349400000001 O
   0.1159159999999990    0.9430562700000000    0.0298206900000000 O
   0.8840840000000000    0.0569437300000000    0.5298206900000000 O
