Cs4 Sr4 Cl12
1.0
   7.8729064700000002   -0.0000000000000000    0.0000000000000000
  -0.0000000000000000    8.0304411899999995    0.0000000000000000
   0.0000000000000000    0.0000000000000000   11.2682858299999999
Cs Sr Cl
4 4 12
direct
   0.0145616800000000    0.4528786999999990    0.2500000000000000 Cs
   0.9854383200000000    0.5471212999999990    0.7500000000000000 Cs
   0.5145616800000000    0.0471213000000000    0.7500000000000000 Cs
   0.4854383200000000    0.9528787000000000    0.2500000000000000 Cs
  -0.0000000000000000    0.0000000000000000    0.0000000000000000 Sr
   0.5000000000000000    0.5000000000000000    0.0000000000000000 Sr
  -0.0000000000000000    0.0000000000000000    0.5000000000000000 Sr
   0.5000000000000000    0.5000000000000000    0.5000000000000000 Sr
   0.2911582400000000    0.2105232500000000    0.0371159300000000 Cl
   0.7088417600000000    0.7894767500000001    0.9628840700000000 Cl
   0.7911582400000000    0.2894767500000000    0.9628840700000000 Cl
   0.7088417600000000    0.7894767500000001    0.5371159300000000 Cl
   0.2088417600000000    0.7105232500000001    0.0371159300000000 Cl
   0.2911582400000000    0.2105232500000000    0.4628840700000000 Cl
   0.2088417600000000    0.7105232500000001    0.4628840700000000 Cl
   0.7911582400000000    0.2894767500000000    0.5371159300000000 Cl
   0.5694309600000000    0.5133668100000001    0.2500000000000000 Cl
   0.4305690400000000    0.4866331900000000    0.7500000000000000 Cl
   0.0694309600000000    0.9866331900000000    0.7500000000000000 Cl
   0.9305690400000001    0.0133668100000000    0.2500000000000000 Cl
