ADDGRID = True
ALGO = Fast
EDIFF = 1e-06
EFIELD_PEAD = -0.002121320343559643 -0.002121320343559643 -0.0
ENCUT = 520.0
IBRION = -1
ISMEAR = 0
ISPIN = 2
ISYM = 0
LASPH = True
LCALCEPS = False
LCALCPOL = True
LCHARG = False
LMAXMIX = 4
LORBIT = 11
LREAL = False
LWAVE = False
MAGMOM = 2*-0.0 1*0.007 1*1.095 2*0.138 2*0.139 2*0.134
NELM = 100
NSW = 0
PREC = Accurate
SIGMA = 0.05
SKIP_EDOTP = True
SYMPREC = 1e-08
