Na4 V4 F12
1.0
   5.4209366799999996    0.0000000000000000    0.0000000000000000
   0.0000000000000000    5.6768902499999996    0.0000000000000000
   0.0000000000000000    0.0000000000000000    7.7996843800000004
Na V F
4 4 12
direct
   0.4812682400000000    0.0623485100000000    0.2500000000000000 Na
   0.0187317600000000    0.5623485100000000    0.2500000000000000 Na
   0.5187317600000000    0.9376514900000000    0.7500000000000000 Na
   0.9812682400000000    0.4376514900000000    0.7500000000000000 Na
   0.5000000000000000    0.5000000000000000    0.0000000000000000 V
   0.0000000000000000    0.0000000000000000    0.5000000000000000 V
   0.5000000000000000    0.5000000000000000    0.5000000000000000 V
   0.0000000000000000    0.0000000000000000    0.0000000000000000 V
   0.6212277400000000    0.4461337600000000    0.2500000000000000 F
   0.8787722600000000    0.9461337600000000    0.2500000000000000 F
   0.3787722600000000    0.5538662400000001    0.7500000000000000 F
   0.1212277400000000    0.0538662400000000    0.7500000000000000 F
   0.1901131100000000    0.3049642999999990    0.0634202000000000 F
   0.3098868900000000    0.8049653000000000    0.4365797999999990 F
   0.8098868900000000    0.6950356999999990    0.5634201999999990 F
   0.6901131100000000    0.1950346999999990    0.9365798000000000 F
   0.8098868900000000    0.6950356999999990    0.9365798000000000 F
   0.6901131100000000    0.1950346999999990    0.5634201999999990 F
   0.1901131100000000    0.3049642999999990    0.4365797999999990 F
   0.3098868900000000    0.8049653000000000    0.0634202000000000 F
