Rb1 Mn1 F3
1.0
   4.2324721399999996   -0.0000000000000000    0.0000000000000000
  -0.0000000000000000    4.2324721399999996   -0.0000000000000000
   0.0000000000000000   -0.0000000000000000    4.2324721399999996
Rb Mn F
1 1 3
direct
   0.0000000000000000    0.0000000000000000    0.0000000000000000 Rb
   0.5000000000000000    0.5000000000000000    0.5000000000000000 Mn
   0.5000000000000000   -0.0000000000000000    0.5000000000000000 F
   0.5000000000000000    0.5000000000000000    0.0000000000000000 F
   0.0000000000000000    0.5000000000000000    0.5000000000000000 F
