Rb2 Li1 Sb1 F6
1.0
   0.0000000000000000    4.3783589999999997    4.3783589999999997
   4.3783589999999997    0.0000000000000000    4.3783589999999997
   4.3783589999999997    4.3783589999999997    0.0000000000000000
Rb Li Sb F
2 1 1 6
direct
   0.7500000000000000    0.7500000000000000    0.7500000000000000 Rb
   0.2500000000000000    0.2500000000000000    0.2500000000000000 Rb
   0.5000000000000000    0.5000000000000000    0.5000000000000000 Li
   0.0000000000000000    0.0000000000000000    0.0000000000000000 Sb
   0.7468710000000000    0.2531290000000000    0.2531290000000000 F
   0.2531290000000000    0.2531290000000000    0.7468710000000000 F
   0.2531290000000000    0.7468710000000000    0.7468710000000000 F
   0.2531290000000000    0.7468710000000000    0.2531290000000000 F
   0.7468710000000000    0.2531290000000000    0.7468710000000000 F
   0.7468710000000000    0.7468710000000000    0.2531290000000000 F
