Ca2 Tl2 F6
1.0
   5.4359646999999987   -0.0091744200000000    3.0975037699999999
   1.7957820199999990    5.1307865899999996    3.0975037699999999
  -0.0129543200000000   -0.0091744100000000    6.2565238699999997
Ca Tl F
2 2 6
direct
   0.0079798800000000    0.0079798800000000    0.0079798800000000 Ca
   0.5079798800000001    0.5079798800000001    0.5079798800000001 Ca
   0.2683229000000000    0.2683229000000000    0.2683229000000000 Tl
   0.7683228999999990    0.7683228999999990    0.7683228999999990 Tl
   0.2381271100000000    0.8130849300000000    0.7009831800000000 F
   0.8130849300000000    0.7009831800000000    0.2381271100000000 F
   0.7009831800000000    0.2381271100000000    0.8130849300000000 F
   0.2009831800000000    0.3130849300000000    0.7381271100000000 F
   0.7381271100000000    0.2009831800000000    0.3130849300000000 F
   0.3130849300000000    0.7381271100000000    0.2009831800000000 F
