Cs1 Na7 Ta8 O24
1.0
   8.0033840000000005    0.0000000000000000    0.0000000000000000
   0.0000000000000000    8.0033840000000005    0.0000000000000000
   0.0000000000000000    0.0000000000000000    8.0033840000000005
Cs Na Ta O
1 7 8 24
direct
   0.0000000000000000    0.0000000000000000    0.0000000000000000 Cs
   0.0000000000000000    0.0000000000000000    0.5000000000000000 Na
   0.0000000000000000    0.5000000000000000    0.0000000000000000 Na
   0.0000000000000000    0.5000000000000000    0.5000000000000000 Na
   0.5000000000000000    0.0000000000000000    0.0000000000000000 Na
   0.5000000000000000    0.0000000000000000    0.5000000000000000 Na
   0.5000000000000000    0.5000000000000000    0.0000000000000000 Na
   0.5000000000000000    0.5000000000000000    0.5000000000000000 Na
   0.2518600000000000    0.2518600000000000    0.2518600000000000 Ta
   0.2518600000000000    0.2518600000000000    0.7481400000000000 Ta
   0.2518600000000000    0.7481400000000000    0.2518600000000000 Ta
   0.2518600000000000    0.7481400000000000    0.7481400000000000 Ta
   0.7481400000000000    0.2518600000000000    0.2518600000000000 Ta
   0.7481400000000000    0.2518600000000000    0.7481400000000000 Ta
   0.7481400000000000    0.7481400000000000    0.2518600000000000 Ta
   0.7481400000000000    0.7481400000000000    0.7481400000000000 Ta
   0.2570040000000000    0.0000000000000000    0.2570040000000000 O
   0.2570040000000000    0.0000000000000000    0.7429960000000000 O
   0.2520320000000000    0.5000000000000000    0.2520320000000000 O
   0.2520320000000000    0.5000000000000000    0.7479680000000000 O
   0.7429960000000000    0.0000000000000000    0.2570040000000000 O
   0.7429960000000000    0.0000000000000000    0.7429960000000000 O
   0.7479680000000000    0.5000000000000000    0.2520320000000000 O
   0.7479680000000000    0.5000000000000000    0.7479680000000000 O
   0.0000000000000000    0.2570040000000000    0.2570040000000000 O
   0.0000000000000000    0.2570040000000000    0.7429960000000000 O
   0.0000000000000000    0.7429960000000000    0.2570040000000000 O
   0.0000000000000000    0.7429960000000000    0.7429960000000000 O
   0.5000000000000000    0.2520320000000000    0.2520320000000000 O
   0.5000000000000000    0.2520320000000000    0.7479680000000000 O
   0.5000000000000000    0.7479680000000000    0.2520320000000000 O
   0.5000000000000000    0.7479680000000000    0.7479680000000000 O
   0.2570040000000000    0.2570040000000000    0.0000000000000000 O
   0.2520320000000000    0.2520320000000000    0.5000000000000000 O
   0.2570040000000000    0.7429960000000000    0.0000000000000000 O
   0.2520320000000000    0.7479680000000000    0.5000000000000000 O
   0.7429960000000000    0.2570040000000000    0.0000000000000000 O
   0.7479680000000000    0.2520320000000000    0.5000000000000000 O
   0.7429960000000000    0.7429960000000000    0.0000000000000000 O
   0.7479680000000000    0.7479680000000000    0.5000000000000000 O
