La4 Sc4 S12
1.0
   6.5811451800000000   -0.0000000000000000    0.0000000000000000
  -0.0000000000000000    7.2172255100000005    0.0000000000000000
   0.0000000000000000    0.0000000000000000    9.6489741400000000
La Sc S
4 4 12
direct
   0.5333916700000000    0.4061889500000000    0.7500000000000000 La
   0.4666083300000000    0.5938110500000000    0.2500000000000000 La
   0.0333916700000000    0.0938110500000000    0.2500000000000000 La
   0.9666083300000000    0.9061889500000000    0.7500000000000000 La
  -0.0000000000000000    0.5000000000000000   -0.0000000000000000 Sc
  -0.0000000000000000    0.5000000000000000    0.5000000000000000 Sc
   0.5000000000000000   -0.0000000000000000    0.5000000000000000 Sc
   0.5000000000000000   -0.0000000000000000   -0.0000000000000000 Sc
   0.8184860600000000    0.1889645900000000    0.5584647200000000 S
   0.1815139400000000    0.8110354100000000    0.0584647200000000 S
   0.3184860600000000    0.3110354100000000    0.0584647200000000 S
   0.6815139400000000    0.6889645900000000    0.5584647200000000 S
   0.8184860600000000    0.1889645900000000    0.9415352800000000 S
   0.1815139400000000    0.8110354100000000    0.4415352800000000 S
   0.3184860600000000    0.3110354100000000    0.4415352800000000 S
   0.6815139400000000    0.6889645900000000    0.9415352800000000 S
   0.8817094999999990    0.4672589500000000    0.2500000000000000 S
   0.1182904999999990    0.5327410500000000    0.7500000000000000 S
   0.3817095000000000    0.0327410500000000    0.7500000000000000 S
   0.6182905000000000    0.9672589500000001    0.2500000000000000 S
