K2 Cr2 F6
1.0
  -2.9113030400000000    2.9113015500000001    4.2455990000000003
   2.9113030400000000   -2.9113015500000001    4.2455990000000003
   2.9113015500000001    2.9113030400000000   -4.2455990000000003
K Cr F
2 2 6
direct
   0.2500000000000000    0.7500000000000000    0.5000000000000000 K
   0.7500000000000000    0.2500000000000000    0.5000000000000000 K
   0.5000000000000000    0.5000000000000000   -0.0000000000000000 Cr
  -0.0000000000000000   -0.0000000000000000   -0.0000000000000000 Cr
   0.2316459500000000    0.2316459500000000   -0.0000000000000000 F
   0.7683540500000000    0.7683540500000000   -0.0000000000000000 F
   0.2657569500000000    0.7503711900000000    0.0161301400000000 F
   0.7342430500000000    0.2496288100000000    0.9838698600000000 F
   0.2496288100000000    0.2657569500000000    0.5153857600000000 F
   0.7503711900000000    0.7342430500000000    0.4846142400000000 F
