Ba12 Ge4 O4
1.0
   7.5725981400000002   -0.0000000000000000    0.0000000000000000
   0.0000000000000000    7.7234716299999997    0.0000000000000000
   0.0000000000000000    0.0000000000000000   10.8335677799999992
Ba Ge O
12 4 4
direct
   0.5783963400000001    0.5193654600000001    0.2500000000000000 Ba
   0.0783963400000000    0.9806345400000001    0.7500000000000000 Ba
   0.9216036600000000    0.0193654600000000    0.2500000000000000 Ba
   0.4216036600000000    0.4806345400000000    0.7500000000000000 Ba
   0.2898711500000000    0.2106958300000000    0.4590442900000000 Ba
   0.7898711500000000    0.2893041700000000    0.5409557100000000 Ba
   0.2101288500000000    0.7106958300000000    0.0409557100000000 Ba
   0.7101288500000000    0.7893041700000000    0.9590442900000000 Ba
   0.7101288500000000    0.7893041700000000    0.5409557100000000 Ba
   0.2101288500000000    0.7106958300000000    0.4590442900000000 Ba
   0.7898711500000000    0.2893041700000000    0.9590442900000000 Ba
   0.2898711500000000    0.2106958300000000    0.0409557100000000 Ba
   0.9869344300000000    0.5395520100000000    0.7500000000000000 Ge
   0.4869344300000000    0.9604479900000000    0.2500000000000000 Ge
   0.5130655700000000    0.0395520100000000    0.7500000000000000 Ge
   0.0130655700000000    0.4604479900000000    0.2500000000000000 Ge
   0.0000000000000000    0.0000000000000000    0.5000000000000000 O
   0.5000000000000000    0.5000000000000000    0.5000000000000000 O
   0.5000000000000000    0.5000000000000000    0.0000000000000000 O
   0.0000000000000000    0.0000000000000000    0.0000000000000000 O
