Cs3 Mn3 Cl9
1.0
   6.8097446100000001    0.0012730000000000    7.4049956400000001
   2.8880923900000002    6.1669707499999999    7.4049956400000001
   0.0020020900000000    0.0012730100000000   10.0601481600000007
Cs Mn Cl
3 3 9
direct
   0.7805674900000000    0.7805684900000001    0.7805674900000000 Cs
   0.2194325100000000    0.2194315100000000    0.2194325100000000 Cs
   0.0000000000000000   -0.0000000000000000    0.0000000000000000 Cs
   0.6157415800000000    0.6157405800000000    0.6157405800000000 Mn
   0.3842584200000000    0.3842594200000000    0.3842594200000000 Mn
   0.5000000000000000    0.5000000000000000    0.5000000000000000 Mn
   0.2857059999999990    0.2857059999999990    0.7569338200000000 Cl
   0.2857059999999990    0.7569338200000000    0.2857059999999990 Cl
   0.7569338200000000    0.2857059999999990    0.2857059999999990 Cl
   0.2430661800000000    0.7142940000000000    0.7142940000000000 Cl
   0.7142940000000000    0.7142940000000000    0.2430661800000000 Cl
   0.7142940000000000    0.2430661800000000    0.7142940000000000 Cl
   0.5000000000000000    0.5000000000000000    0.0000000000000000 Cl
   0.0000000000000000    0.5000000000000000    0.5000000000000000 Cl
   0.5000000000000000   -0.0000000000000000    0.5000000000000000 Cl
