Cs2 Li1 In1 F6
1.0
   0.0000000000000000    4.4305269999999997    4.4305269999999997
   4.4305269999999997    0.0000000000000000    4.4305269999999997
   4.4305269999999997    4.4305269999999997    0.0000000000000000
Cs Li In F
2 1 1 6
direct
   0.7500000000000000    0.7500000000000000    0.7500000000000000 Cs
   0.2500000000000000    0.2500000000000000    0.2500000000000000 Cs
   0.5000000000000000    0.5000000000000000    0.5000000000000000 Li
   0.0000000000000000    0.0000000000000000    0.0000000000000000 In
   0.7589450000000000    0.2410550000000000    0.2410550000000000 F
   0.2410550000000000    0.2410550000000000    0.7589450000000000 F
   0.2410550000000000    0.7589450000000000    0.7589450000000000 F
   0.2410550000000000    0.7589450000000000    0.2410550000000000 F
   0.7589450000000000    0.2410550000000000    0.7589450000000000 F
   0.7589450000000000    0.7589450000000000    0.2410550000000000 F
