Rb4 Ge4 Br12
1.0
   7.6282912100000004    0.0000000000000000    0.0000000000000000
   0.0000000000000000    8.2668856099999992    0.0000000000000000
   0.0000000000000000    0.0000000000000000   11.3034418799999994
Rb Ge Br
4 4 12
direct
   0.9665211200000000    0.4136379800000000    0.2503129200000000 Rb
   0.4665211200000000    0.0863620200000000    0.7503129200000000 Rb
   0.5334788800000000    0.9136379800000001    0.2503129200000000 Rb
   0.0334788800000000    0.5863620200000000    0.7503129200000000 Rb
   0.4824626900000000    0.4659505200000000    0.4795034500000000 Ge
   0.5175373100000000    0.5340494800000000    0.9795034500000001 Ge
   0.0175373100000000    0.9659505200000000    0.4795034500000000 Ge
   0.9824626900000000    0.0340494800000000    0.9795034500000001 Ge
   0.3294000000000000    0.7882207600000000    0.9606099300000001 Br
   0.1706000000000000    0.2882207600000000    0.9606099300000001 Br
   0.8294000000000000    0.7117792400000000    0.4606099300000000 Br
   0.2971597300000000    0.8178008400000000    0.5336015000000000 Br
   0.2028402700000000    0.3178008400000000    0.5336015000000000 Br
   0.7971607300000000    0.6821991600000000    0.0336015000000000 Br
   0.4203787500000000    0.4939799500000000    0.2607732000000000 Br
   0.7028392700000000    0.1821991600000000    0.0336015000000000 Br
   0.9203787500000000    0.0060200500000000    0.7607731999999990 Br
   0.5796212500000000    0.5060200500000001    0.7607731999999990 Br
   0.0796212500000000    0.9939799500000001    0.2607732000000000 Br
   0.6706000000000001    0.2117792400000000    0.4606099300000000 Br
