Na4 Mg4 F12
1.0
   5.2969831899999997   -0.0000000000000000    0.0000000000000000
  -0.0000000000000000    5.4712665899999999    0.0000000000000000
   0.0000000000000000    0.0000000000000000    7.5986874499999999
Na Mg F
4 4 12
direct
   0.0134242500000000    0.9474414700000000    0.7500000000000000 Na
   0.5134242500000000    0.5525585300000000    0.2500000000000000 Na
   0.4865757500000000    0.4474414700000000    0.7500000000000000 Na
   0.9865757500000000    0.0525585300000000    0.2500000000000000 Na
  -0.0000000000000000    0.5000000000000000    0.5000000000000000 Mg
   0.5000000000000000   -0.0000000000000000    0.5000000000000000 Mg
   0.5000000000000000   -0.0000000000000000   -0.0000000000000000 Mg
  -0.0000000000000000    0.5000000000000000   -0.0000000000000000 Mg
   0.7000449000000000    0.2969377100000000    0.4495153400000000 F
   0.2000449000000000    0.2030622900000000    0.5504846600000000 F
   0.7999550999999990    0.7969377100000000    0.0504846600000000 F
   0.2999551000000000    0.7030622900000000    0.9495153400000000 F
   0.2999551000000000    0.7030622900000000    0.5504846600000000 F
   0.7999550999999990    0.7969377100000000    0.4495153400000000 F
   0.2000449000000000    0.2030622900000000    0.9495153400000000 F
   0.7000449000000000    0.2969377100000000    0.0504846600000000 F
   0.0962783600000000    0.4683665500000000    0.2500000000000000 F
   0.5962783600000000    0.0316334500000000    0.7500000000000000 F
   0.4037216400000000    0.9683665500000000    0.2500000000000000 F
   0.9037216400000000    0.5316334500000001    0.7500000000000000 F
