Sr4 Hf4 S12
1.0
   6.7297664600000004   -0.0000000000000000    0.0000000000000000
  -0.0000000000000000    7.0820188000000002    0.0000000000000000
   0.0000000000000000    0.0000000000000000    9.7414373500000000
Sr Hf S
4 4 12
direct
   0.0234100100000000    0.4228534700000000    0.2500000000000000 Sr
   0.9765899900000000    0.5771465300000000    0.7500000000000000 Sr
   0.5234100100000000    0.0771465300000000    0.7500000000000000 Sr
   0.4765899900000000    0.9228534700000001    0.2500000000000000 Sr
   0.0000000000000000   -0.0000000000000000    0.0000000000000000 Hf
   0.5000000000000000    0.5000000000000000    0.0000000000000000 Hf
   0.0000000000000000   -0.0000000000000000    0.5000000000000000 Hf
   0.5000000000000000    0.5000000000000000    0.5000000000000000 Hf
   0.3058352500000000    0.1983858700000000    0.0473297700000000 S
   0.6941647500000000    0.8016141300000000    0.9526692300000000 S
   0.8058352500000000    0.3016141300000000    0.9526692300000000 S
   0.6941647500000000    0.8016141300000000    0.5473307700000000 S
   0.1941647500000000    0.6983858700000000    0.0473297700000000 S
   0.3058352500000000    0.1983858700000000    0.4526692300000000 S
   0.1941647500000000    0.6983858700000000    0.4526692300000000 S
   0.8058352500000000    0.3016141300000000    0.5473307700000000 S
   0.5928354100000001    0.5166876600000000    0.2500000000000000 S
   0.4071645900000000    0.4833123400000000    0.7500000000000000 S
   0.0928354100000000    0.9833123400000000    0.7500000000000000 S
   0.9071645900000000    0.0166876600000000    0.2500000000000000 S
