La1 Al1 O3
1.0
   3.7829487999999998   -0.0000000000000000   -0.0000000000000000
  -0.0000000000000000    3.7829487999999998   -0.0000000000000000
   0.0000000000000000   -0.0000000000000000    3.7829487999999998
La Al O
1 1 3
direct
   0.5000000000000000    0.5000000000000000    0.5000000000000000 La
   0.0000000000000000   -0.0000000000000000   -0.0000000000000000 Al
   0.0000000000000000    0.5000000000000000    0.0000000000000000 O
  -0.0000000000000000    0.0000000000000000    0.5000000000000000 O
   0.5000000000000000    0.0000000000000000    0.0000000000000000 O
