K2 Rb4 In2 F12
1.0
   6.5513079999999997    0.0000000000000000    0.0000000000000000
   0.0000000000000000    6.5550639999999998    0.0000000000000000
   0.0000000000000000    6.5471769999999996    9.2803740000000001
K Rb In F
2 4 2 12
direct
   0.0000000000000000    0.5000000000000000    0.5000000000000000 K
   0.5000000000000000    0.5000000000000000    0.0000000000000000 K
   0.4720260000000000    0.7505140000000000    0.2512230000000000 Rb
   0.5279739999999991    0.2494859999999990    0.7487769999999990 Rb
   0.9720259999999999    0.2494859999999990    0.2487770000000000 Rb
   0.0279740000000000    0.7505140000000000    0.7512230000000000 Rb
   0.0000000000000000    0.0000000000000000    0.0000000000000000 In
   0.5000000000000000    0.0000000000000000    0.5000000000000000 In
   0.1828590000000000    0.2285620000000000    0.0334589999999990 F
   0.8171410000000000    0.7714380000000000    0.9665410000000000 F
   0.6828590000000000    0.7714380000000000    0.4665410000000000 F
   0.3171410000000000    0.2285620000000000    0.5334590000000000 F
   0.0164320000000000    0.7108359999999990    0.2233490000000000 F
   0.9835680000000000    0.2891640000000000    0.7766510000000000 F
   0.5164320000000000    0.2891640000000000    0.2766510000000000 F
   0.4835680000000000    0.7108359999999990    0.7233490000000000 F
   0.7348789999999999    0.1436290000000000    0.0355000000000000 F
   0.2651210000000000    0.8563710000000000    0.9645000000000000 F
   0.2348789999999990    0.8563710000000000    0.4645000000000000 F
   0.7651209999999991    0.1436290000000000    0.5355000000000000 F
