Cs2 K1 Cu1 F6
1.0
   0.0000000000000000    4.5599530000000001    4.5599530000000001
   4.5599530000000001    0.0000000000000000    4.5599530000000001
   4.5599530000000001    4.5599530000000001    0.0000000000000000
Cs K Cu F
2 1 1 6
direct
   0.7500000000000000    0.7500000000000000    0.7500000000000000 Cs
   0.2500000000000000    0.2500000000000000    0.2500000000000000 Cs
   0.5000000000000000    0.5000000000000000    0.5000000000000000 K
   0.0000000000000000    0.0000000000000000    0.0000000000000000 Cu
   0.7865639999999990    0.2134360000000000    0.7865639999999990 F
   0.2134360000000000    0.2134360000000000    0.7865639999999990 F
   0.7865639999999990    0.7865639999999990    0.2134360000000000 F
   0.7865639999999990    0.2134360000000000    0.2134360000000000 F
   0.2134360000000000    0.7865639999999990    0.2134360000000000 F
   0.2134360000000000    0.7865639999999990    0.7865639999999990 F
