Cs2 K1 Fe1 F6
1.0
  -4.6039839999999996   -4.6039839999999996    0.0000000000000000
  -4.6039839999999996    0.0000000000000000   -4.6039839999999996
   0.0000000000000000   -4.6039839999999996   -4.6039839999999996
Cs K Fe F
2 1 1 6
direct
   0.7500000000000000    0.7500000000000000    0.7500000000000000 Cs
   0.2500000000000000    0.2500000000000000    0.2500000000000000 Cs
   0.5000000000000000    0.5000000000000000    0.5000000000000000 K
   0.0000000000000000    0.0000000000000000    0.0000000000000000 Fe
   0.7855400000000000    0.2144600000000000    0.2144600000000000 F
   0.2144600000000000    0.7855400000000000    0.2144600000000000 F
   0.7855400000000000    0.2144600000000000    0.7855400000000000 F
   0.7855400000000000    0.7855400000000000    0.2144600000000000 F
   0.2144600000000000    0.7855400000000000    0.7855400000000000 F
   0.2144600000000000    0.2144600000000000    0.7855400000000000 F
