K4 Ca4 Cl12
1.0
   7.2089885100000002   -0.0000000000000000    0.0000000000000000
  -0.0000000000000000    7.5916963400000004    0.0000000000000000
   0.0000000000000000    0.0000000000000000   10.4579308799999993
K Ca Cl
4 4 12
direct
   0.0241350600000000    0.4297235200000000    0.2500000000000000 K
   0.9758649400000000    0.5702764800000000    0.7500000000000000 K
   0.5241350600000000    0.0702764800000000    0.7500000000000000 K
   0.4758649400000000    0.9297235200000000    0.2500000000000000 K
   0.0000000000000000   -0.0000000000000000   -0.0000000000000000 Ca
   0.5000000000000000    0.5000000000000000   -0.0000000000000000 Ca
   0.0000000000000000   -0.0000000000000000    0.5000000000000000 Ca
   0.5000000000000000    0.5000000000000000    0.5000000000000000 Ca
   0.3056312300000000    0.1995594300000000    0.0536686900000000 Cl
   0.6943687700000000    0.8004405700000000    0.9463313100000000 Cl
   0.8056312300000000    0.3004405700000000    0.9463313100000000 Cl
   0.6943687700000000    0.8004405700000000    0.5536686900000000 Cl
   0.1943687700000000    0.6995594300000000    0.0536686900000000 Cl
   0.3056312300000000    0.1995594300000000    0.4463313100000000 Cl
   0.1943687700000000    0.6995594300000000    0.4463313100000000 Cl
   0.8056312300000000    0.3004405700000000    0.5536686900000000 Cl
   0.6029960700000000    0.5301565600000000    0.2500000000000000 Cl
   0.3970039300000000    0.4698434400000000    0.7500000000000000 Cl
   0.1029960700000000    0.9698434400000000    0.7500000000000000 Cl
   0.8970039300000000    0.0301565600000000    0.2500000000000000 Cl
