K4 Na2 Nb2 O4 F8
1.0
  -6.0781010000000002    0.0000000000000000    0.0000000000000000
  -0.0025859999999990    6.0834270000000004    0.0000000000000000
  -0.0086769999999990    0.0279630000000000   -8.6394459999999995
K Na Nb O F
4 2 2 4 8
direct
   0.0006789999999990    0.4973990000000000    0.2474110000000000 K
   0.4980690000000000    0.9956130000000000    0.2477990000000000 K
   0.5047320000000000    0.0012610000000000    0.7463350000000000 K
   0.0025629999999990    0.5007090000000000    0.7538360000000000 K
   0.4998430000000000    0.5048400000000001    0.0015450000000000 Na
   0.0005720000000000    0.0025300000000000    0.4988570000000000 Na
   0.9998210000000000    0.0036330000000000    0.9989089999999990 Nb
   0.4977700000000000    0.5027750000000000    0.5000709999999990 Nb
   0.2223800000000000    0.2234960000000000    0.0021300000000000 O
   0.2777940000000000    0.7253470000000000    0.5000190000000000 O
   0.7164630000000000    0.2780180000000000    0.4981100000000001 O
   0.7769560000000000    0.7827959999999990    0.9998400000000001 O
   0.7366659999999990    0.7375720000000000    0.4967359999999990 F
   0.0022160000000000    0.0065109999999990    0.7640549999999990 F
   0.9984630000000000    0.0016950000000000    0.2351760000000000 F
   0.2336990000000000    0.7644839999999991    0.0021739999999990 F
   0.4951990000000000    0.5048040000000000    0.2634030000000000 F
   0.4964690000000000    0.5016700000000001    0.7351350000000000 F
   0.7629170000000000    0.2409990000000000    0.9971789999999990 F
   0.2588189999999990    0.2682200000000000    0.4978090000000000 F
