Mg3 Sb1 N1
1.0
   4.3453185799999998   -0.0000000000000000   -0.0000000000000000
  -0.0000000000000000    4.3453185799999998   -0.0000000000000000
   0.0000000000000000   -0.0000000000000000    4.3453185799999998
Mg Sb N
3 1 1
direct
  -0.0000000000000000    0.5000000000000000    0.5000000000000000 Mg
   0.5000000000000000   -0.0000000000000000    0.5000000000000000 Mg
   0.5000000000000000    0.5000000000000000   -0.0000000000000000 Mg
  -0.0000000000000000    0.0000000000000000   -0.0000000000000000 Sb
   0.5000000000000000    0.5000000000000000    0.5000000000000000 N
