Lu4 Ga4 O12
1.0
   5.2080620000000000    0.0000000000000000    0.0000000000000000
   0.0000000000000000    5.5382129999999998    0.0000000000000000
   0.0000000000000000    0.0000000000000000    7.5841940000000001
Lu Ga O
4 4 12
direct
   0.0220929999999990    0.0716030000000000    0.7500000000000000 Lu
   0.4779069999999990    0.5716030000000000    0.7500000000000000 Lu
   0.5220930000000000    0.4283970000000000    0.2500000000000000 Lu
   0.9779070000000000    0.9283969999999990    0.2500000000000000 Lu
   0.0000000000000000    0.5000000000000000    0.5000000000000000 Ga
   0.5000000000000000    0.0000000000000000    0.5000000000000000 Ga
   0.5000000000000000    0.0000000000000000    0.0000000000000000 Ga
   0.0000000000000000    0.5000000000000000    0.0000000000000000 Ga
   0.1245169999999990    0.5487820000000000    0.2500000000000000 O
   0.1903149999999990    0.8067090000000000    0.5633460000000000 O
   0.1903149999999990    0.8067090000000000    0.9366540000000000 O
   0.3096850000000000    0.3067090000000000    0.9366540000000000 O
   0.3096850000000000    0.3067090000000000    0.5633460000000000 O
   0.3754829999999990    0.0487820000000000    0.2500000000000000 O
   0.6245170000000000    0.9512180000000000    0.7500000000000000 O
   0.6903150000000000    0.6932910000000000    0.0633460000000000 O
   0.6903150000000000    0.6932910000000000    0.4366540000000000 O
   0.8096850000000000    0.1932910000000000    0.4366540000000000 O
   0.8096850000000000    0.1932910000000000    0.0633460000000000 O
   0.8754830000000000    0.4512179999999990    0.7500000000000000 O
