Sr6 Te2 O12
1.0
   5.8642275699999997    0.0000000000000000    0.0189043500000000
   0.0000000000000000    6.0629250399999997    0.0000000000000000
  -0.0078562400000000    0.0000000000000000    8.3878026400000003
Sr Te O
6 2 12
direct
  -0.0000000000000000    0.5000000000000000    0.5000000000000000 Sr
   0.0130620600000000    0.9532849700000000    0.7470842200000000 Sr
   0.4869379400000000    0.4532849700000000    0.7529157800000000 Sr
   0.5000000000000000   -0.0000000000000000    0.0000000000000000 Sr
   0.5130620600000000    0.5467150300000000    0.2470842200000000 Sr
   0.9869379400000000    0.0467150300000000    0.2529157800000000 Sr
  -0.0000000000000000    0.5000000000000000    0.0000000000000000 Te
   0.5000000000000000   -0.0000000000000000    0.5000000000000000 Te
   0.0963312600000000    0.4562413200000000    0.2179345700000000 O
   0.1708364600000000    0.2389309800000000    0.9389117600000000 O
   0.2338238600000000    0.1777305600000000    0.5422178800000000 O
   0.2661761400000000    0.6777305600000000    0.9577821200000001 O
   0.3291635400000000    0.7389309800000000    0.5610882400000000 O
   0.4036687400000000    0.9562413200000001    0.2820654300000000 O
   0.5963312600000000    0.0437586800000000    0.7179345700000000 O
   0.6708364600000000    0.2610690200000000    0.4389117600000000 O
   0.7338238600000000    0.3222694400000000    0.0422178800000000 O
   0.7661761400000000    0.8222694400000000    0.4577821200000000 O
   0.8291635400000000    0.7610690200000000    0.0610882400000000 O
   0.9036687400000000    0.5437586800000000    0.7820654300000001 O
