Na4 Ni4 F12
1.0
   5.2955107300000002   -0.0000469000000000   -0.0000649200000000
  -0.0000492300000000    5.5237953800000001   -0.0000308400000000
  -0.0000939800000000   -0.0000427000000000    7.6095825499999998
Na Ni F
4 4 12
direct
   0.0176085500000000    0.9351374600000000    0.7500037800000000 Na
   0.5176049100000000    0.5648590500000000    0.2499976500000000 Na
   0.4823921000000000    0.4351344500000000    0.7500027900000000 Na
   0.9823893400000000    0.0648664400000000    0.2499994600000000 Na
   0.5000036700000000   -0.0000096900000000    0.5000024600000000 Ni
  -0.0000066400000000    0.5000079500000000    0.5000039800000000 Ni
   0.0000024900000000    0.5000042100000001   -0.0000028500000000 Ni
   0.5000024200000001   -0.0000108400000000   -0.0000015100000000 Ni
   0.6934020000000000    0.3019351900000000    0.4436795000000000 F
   0.1933741000000000    0.1980805100000000    0.5563019100000001 F
   0.8065878700000000    0.8019222900000000    0.0563123900000000 F
   0.3066035100000000    0.6980665500000001    0.9436581100000000 F
   0.3066003200000000    0.6980617600000000    0.5563166900000001 F
   0.8066180600000000    0.8019165200000000    0.4436977700000000 F
   0.1934291800000000    0.1980853300000000    0.9436827400000000 F
   0.6934021800000000    0.3019330200000000    0.0563434600000000 F
   0.1088419600000000    0.4619949000000000    0.2500152300000000 F
   0.6088600900000000    0.0380216100000000    0.7500011800000000 F
   0.3911334100000000    0.9619722100000000    0.2499981600000000 F
   0.8911484900000001    0.5380200700000000    0.7499891000000000 F
