Sr4 Y2 Ta2 O12
1.0
   5.8012761600000005    0.0000000000000000   -0.0173716500000000
   0.0000000000000000    5.8763756400000000    0.0000000000000000
  -0.0026600300000000    0.0000000000000000    8.2356925899999993
Sr Y Ta O
4 2 2 12
direct
   0.9917468200000000    0.4637588400000000    0.2496958900000000 Sr
   0.5082531800000000    0.9637588400000000    0.2503041100000000 Sr
   0.4917468200000000    0.0362411600000000    0.7496958900000000 Sr
   0.0082531800000000    0.5362411600000000    0.7503041100000000 Sr
   0.0000000000000000    0.0000000000000000    0.0000000000000000 Y
   0.5000000000000000    0.5000000000000000    0.5000000000000000 Y
   0.5000000000000000    0.5000000000000000    0.0000000000000000 Ta
   0.0000000000000000    0.0000000000000000    0.5000000000000000 Ta
   0.8049768900000001    0.7263009800000000    0.4556492400000000 O
   0.6950231100000001    0.2263009800000000    0.0443507600000000 O
   0.1950231100000000    0.2736990200000000    0.5443507600000000 O
   0.3049768900000000    0.7736990200000000    0.9556492400000001 O
   0.7269538200000000    0.1976600999999990    0.4595407600000000 O
   0.7730461800000000    0.6976601000000000    0.0404592400000000 O
   0.2730461800000000    0.8023399000000000    0.5404592400000000 O
   0.2269538200000000    0.3023399000000000    0.9595407600000000 O
   0.0799360400000000    0.0233383200000000    0.2654683200000000 O
   0.4200639600000000    0.5233383200000000    0.2345316800000000 O
   0.9200639600000000    0.9766616800000000    0.7345316800000000 O
   0.5799360400000000    0.4766616800000000    0.7654683200000000 O
