Sr1 Hf1 O3
1.0
   4.1381090000000000    0.0000000000000000    0.0000000000000000
   0.0000000000000000    4.1381090000000000    0.0000000000000000
   0.0000000000000000    0.0000000000000000    4.1467359999999998
Sr Hf O
1 1 3
direct
   0.5000000000000000    0.5000000000000000    0.5148159999999991 Sr
   0.0000000000000000    0.0000000000000000    0.9928190000000000 Hf
   0.5000000000000000    0.0000000000000000    0.9752170000000000 O
   0.0000000000000000    0.5000000000000000    0.9752170000000000 O
   0.0000000000000000    0.0000000000000000    0.4859320000000000 O
