Cs1 Pb1 Cl3
1.0
   4.0252042899999996   -4.0031549999999996   -0.0130227000000000
   4.0252042899999996    4.0031549999999996   -0.0130227000000000
   0.0623839500000000   -0.0000000000000000    5.6766001800000003
Cs Pb Cl
1 1 3
direct
   0.5000000000000000    0.5000000000000000    0.5000000000000000 Cs
  -0.0000000000000000    0.0000000000000000   -0.0000000000000000 Pb
   0.9813997000000000    0.5000000000000000    0.0186003000000000 Cl
   0.5000000000000000    0.0186003000000000    0.9813997000000000 Cl
   0.0186003000000000    0.9813997000000000    0.5000000000000000 Cl
