Rb2 Na1 Fe1 F6
1.0
   0.0000000000000000    4.3076280000000002    4.3076280000000002
   4.3076280000000002    0.0000000000000000    4.3076280000000002
   4.3076280000000002    4.3076280000000002    0.0000000000000000
Rb Na Fe F
2 1 1 6
direct
   0.7500000000000000    0.7500000000000000    0.7500000000000000 Rb
   0.2500000000000000    0.2500000000000000    0.2500000000000000 Rb
   0.5000000000000000    0.5000000000000000    0.5000000000000000 Na
   0.0000000000000000    0.0000000000000000    0.0000000000000000 Fe
   0.7712909999999999    0.2287090000000000    0.7712909999999999 F
   0.2287090000000000    0.2287090000000000    0.7712909999999999 F
   0.7712909999999999    0.7712909999999999    0.2287090000000000 F
   0.7712909999999999    0.2287090000000000    0.2287090000000000 F
   0.2287090000000000    0.7712909999999999    0.2287090000000000 F
   0.2287090000000000    0.7712909999999999    0.7712909999999999 F
