Ca8 Cr4 Sb4 O24
1.0
   5.4080651900000003   -0.0000064300000000   -0.0167662700000000
  -0.0000065300000000    5.5224655399999998   -0.0000017900000000
  -0.0192469700000000   -0.0000055400000000   15.4004516700000007
Ca Cr Sb O
8 4 4 24
direct
   0.5120527700000000    0.5486519400000001    0.1246165100000000 Ca
   0.5120340999999990    0.5486398600000000    0.6246208500000000 Ca
   0.0119947300000000    0.9513735400000001    0.3746184400000000 Ca
   0.0120310000000000    0.9513856500000000    0.8746206200000001 Ca
   0.4879651800000000    0.4513776700000000    0.3753802000000000 Ca
   0.4880023300000000    0.4513788100000000    0.8753812900000000 Ca
   0.9879582700000000    0.0486497000000000    0.1253820700000000 Ca
   0.9879579100000000    0.0486431100000000    0.6253793300000000 Ca
   0.0000350000000000    0.5000176000000000    0.7499853100000000 Cr
   0.4999603200000000    0.0000167500000000    0.5000157500000000 Cr
   0.0000062500000000    0.5000169800000001    0.2499828999999990 Cr
   0.5000030100000000    0.0000279100000000    0.0000168900000000 Cr
   0.0000372500000000    0.5000326100000000   -0.0000039800000000 Sb
   0.9999938600000000    0.5000201600000000    0.4999921500000000 Sb
   0.4999688900000000    0.0000137400000000    0.2500060200000000 Sb
   0.4999995700000000    0.0000190500000000    0.7500077200000000 Sb
   0.4121823400000000    0.9747391200000001    0.1253930900000000 O
   0.4121672100000000    0.9747343900000001    0.6253894400000000 O
   0.9121665900000000    0.5253418500000000    0.3754275300000000 O
   0.9122077700000000    0.5253483100000000    0.8754187900000000 O
   0.5877891700000000    0.0253427600000000    0.3745833800000000 O
   0.5878305800000000    0.0253506900000000    0.8745715400000000 O
   0.0878303600000000    0.4747508200000000    0.1246075300000000 O
   0.0878251200000000    0.4747330900000000    0.6246105600000000 O
   0.7943827999999999    0.7947515800000000    0.2274613100000000 O
   0.7944091900000000    0.7947459800000000    0.7274575500000000 O
   0.2944508100000000    0.7051715400000000    0.4774776100000000 O
   0.2945007700000000    0.7051753100000000    0.9774786500000000 O
   0.2054977800000000    0.2051580700000000    0.2725219700000000 O
   0.2055424200000000    0.2051696900000000    0.7725190100000000 O
   0.7056316700000000    0.2947535100000000    0.0225396600000000 O
   0.7055847100000000    0.2947433400000000    0.5225444200000000 O
   0.2968905500000000    0.7079548800000001    0.2731801300000000 O
   0.2969101700000000    0.7079649500000000    0.7731792600000000 O
   0.7968526600000000    0.7919727100000000    0.0232291700000000 O
   0.7968149700000000    0.7919628900000000    0.5232380300000000 O
   0.7031492200000000    0.2919644700000000    0.2267668900000000 O
   0.7031759800000000    0.2919663900000000    0.7267636800000000 O
   0.2030843200000000    0.2079648100000000    0.4768201100000000 O
   0.2031233900000000    0.2079747800000000    0.9768196300000000 O
