Ca4 Ce4 O12
1.0
   5.8407190000000000    0.0000000000000000    0.0000000000000000
   0.0000000000000000    6.0621499999999999    0.0000000000000000
   0.0000000000000000    0.0000000000000000    8.5126019999999993
Ca Ce O
4 4 12
direct
   0.0121450000000000    0.9491550000000000    0.7500000000000000 Ca
   0.4878550000000000    0.4491549999999990    0.7500000000000000 Ca
   0.5121450000000000    0.5508450000000000    0.2500000000000000 Ca
   0.9878549999999990    0.0508449999999990    0.2500000000000000 Ca
   0.0000000000000000    0.5000000000000000    0.0000000000000000 Ce
   0.0000000000000000    0.5000000000000000    0.5000000000000000 Ce
   0.5000000000000000    0.0000000000000000    0.0000000000000000 Ce
   0.5000000000000000    0.0000000000000000    0.5000000000000000 Ce
   0.1301820000000000    0.4313530000000000    0.2500000000000000 O
   0.1879150000000000    0.1890980000000000    0.5698770000000000 O
   0.1879150000000000    0.1890980000000000    0.9301229999999990 O
   0.3120850000000000    0.6890980000000000    0.5698770000000000 O
   0.3120850000000000    0.6890980000000000    0.9301229999999990 O
   0.3698180000000000    0.9313530000000000    0.2500000000000000 O
   0.6301820000000000    0.0686470000000000    0.7500000000000000 O
   0.6879149999999991    0.3109020000000000    0.0698770000000000 O
   0.6879149999999991    0.3109020000000000    0.4301230000000000 O
   0.8120849999999999    0.8109020000000000    0.0698770000000000 O
   0.8120849999999999    0.8109020000000000    0.4301230000000000 O
   0.8698180000000000    0.5686470000000000    0.7500000000000000 O
