Sr4 Zr4 O12
1.0
   5.7952411499999998    0.0000000000000000    0.0000000000000000
   0.0000000000000000    5.8442895999999998    0.0000000000000000
   0.0000000000000000    0.0000000000000000    8.2145741200000000
Sr Zr O
4 4 12
direct
   0.0069506200000000    0.5313782900000000    0.2500000000000000 Sr
   0.5069506200000000    0.9686217100000000    0.7500000000000000 Sr
   0.4930493800000000    0.0313782900000000    0.2500000000000000 Sr
   0.9930493800000000    0.4686217100000000    0.7500000000000000 Sr
  -0.0000000000000000   -0.0000000000000000   -0.0000000000000000 Zr
   0.5000000000000000    0.5000000000000000   -0.0000000000000000 Zr
   0.5000000000000000    0.5000000000000000    0.5000000000000000 Zr
  -0.0000000000000000   -0.0000000000000000    0.5000000000000000 Zr
   0.2143542400000000    0.2854499400000000    0.4608332000000000 O
   0.7143542400000000    0.2145500600000000    0.5391667999999999 O
   0.2856457600000000    0.7854499400000000    0.0391668000000000 O
   0.7856457600000000    0.7145500600000000    0.9608331999999991 O
   0.7856457600000000    0.7145500600000000    0.5391667999999999 O
   0.2856457600000000    0.7854499400000000    0.4608332000000000 O
   0.7143542400000000    0.2145500600000000    0.9608331999999991 O
   0.2143542400000000    0.2854499400000000    0.0391668000000000 O
   0.9258093900000001    0.9813680300000001    0.2500000000000000 O
   0.4258093900000000    0.5186319700000001    0.7500000000000000 O
   0.5741906100000000    0.4813680300000000    0.2500000000000000 O
   0.0741906100000000    0.0186319700000000    0.7500000000000000 O
