Cs2 Na1 Rh1 F6
1.0
   0.0000000000000000    4.4469170000000000    4.4469170000000000
   4.4469170000000000    0.0000000000000000    4.4469170000000000
   4.4469170000000000    4.4469170000000000    0.0000000000000000
Cs Na Rh F
2 1 1 6
direct
   0.7500000000000000    0.7500000000000000    0.7500000000000000 Cs
   0.2500000000000000    0.2500000000000000    0.2500000000000000 Cs
   0.5000000000000000    0.5000000000000000    0.5000000000000000 Na
   0.0000000000000000    0.0000000000000000    0.0000000000000000 Rh
   0.7712559999999991    0.2287440000000000    0.2287440000000000 F
   0.2287440000000000    0.2287440000000000    0.7712559999999991 F
   0.2287440000000000    0.7712559999999991    0.7712559999999991 F
   0.2287440000000000    0.7712559999999991    0.2287440000000000 F
   0.7712559999999991    0.2287440000000000    0.7712559999999991 F
   0.7712559999999991    0.7712559999999991    0.2287440000000000 F
