Ba2 Zn1 Te1 O6
1.0
  -4.1315100000000005   -4.1315100000000005    0.0000000000000000
  -4.1315100000000005    0.0000000000000000   -4.1315100000000005
   0.0000000000000000   -4.1315100000000005   -4.1315100000000005
Ba Zn Te O
2 1 1 6
direct
   0.2500000000000000    0.2500000000000000    0.2500000000000000 Ba
   0.7500000000000000    0.7500000000000000    0.7500000000000000 Ba
   0.0000000000000000    0.0000000000000000    0.0000000000000000 Zn
   0.5000000000000000    0.5000000000000000    0.5000000000000000 Te
   0.7383510000000000    0.2616489999999990    0.2616489999999990 O
   0.7383510000000000    0.2616489999999990    0.7383510000000000 O
   0.7383510000000000    0.7383510000000000    0.2616489999999990 O
   0.2616489999999990    0.7383510000000000    0.7383510000000000 O
   0.2616489999999990    0.7383510000000000    0.2616489999999990 O
   0.2616489999999990    0.2616489999999990    0.7383510000000000 O
