Ba2 La1 Ta1 O6
1.0
   5.2989736399999998    0.0012796700000000   -2.9997442100000002
  -3.5149016400000002    4.9720971199999999   -0.0359717100000000
   0.0145643300000000    0.0075461300000000    6.1369344999999997
Ba La Ta O
2 1 1 6
direct
   0.5059189500000000    0.7519531700000001    0.2578721200000000 Ba
   0.4940810500000000    0.2480468300000000    0.7421278800000000 Ba
  -0.0000000000000000    0.0000000000000000    0.0000000000000000 La
  -0.0000000000000000    0.5000000000000000    0.5000000000000000 Ta
   0.5438491200000000    0.3056796400000000    0.3112871900000000 O
   0.9943924400000000    0.2325629300000000    0.6887128100000001 O
   0.4561508800000000    0.6943213600000000    0.6887128100000001 O
   0.0056075600000000    0.7674370700000001    0.3112871900000000 O
   0.0666780800000000    0.7265993800000000    0.7932774600000000 O
   0.9333219200000000    0.2734006200000000    0.2067225400000000 O
