K1 Ge1 Br3
1.0
   3.9372400000000001    3.9898309999999992    0.0000000000000000
  -3.9372400000000001    3.9898309999999992    0.0000000000000000
   0.0000000000000000    0.1327760000000000    5.5904699999999998
K Ge Br
1 1 3
direct
   0.0018470000000000    0.0018470000000000    0.0005949999999990 K
   0.5216220000000000    0.5216220000000000    0.5334230000000000 Ge
   0.9854400000000001    0.5018549999999991    0.5136430000000000 Br
   0.4942860000000000    0.4942860000000000    0.0007869999999990 Br
   0.5018549999999991    0.9854400000000001    0.5136430000000000 Br
