Cs4 Li2 Sc2 Cl12
1.0
  12.3430230000000005   -3.7280379999999989    0.0000000000000000
  12.3430230000000005    3.7280379999999989    0.0000000000000000
  11.2170220000000000    0.0000000000000000    6.3582159999999996
Cs Li Sc Cl
4 2 2 12
direct
   0.8738410000000000    0.8738410000000000    0.8738410000000000 Cs
   0.1261590000000000    0.1261590000000000    0.1261590000000000 Cs
   0.7109590000000000    0.7109590000000000    0.7109590000000000 Cs
   0.2890410000000000    0.2890410000000000    0.2890410000000000 Cs
   0.5887660000000000    0.5887660000000000    0.5887660000000000 Li
   0.4112340000000000    0.4112340000000000    0.4112340000000000 Li
   0.0000000000000000    0.0000000000000000    0.0000000000000000 Sc
   0.5000000000000000    0.5000000000000000    0.5000000000000000 Sc
   0.3878860000000000    0.8488629999999990    0.3878860000000000 Cl
   0.3878860000000000    0.3878860000000000    0.8488629999999990 Cl
   0.8488629999999990    0.3878860000000000    0.3878860000000000 Cl
   0.6121139999999990    0.1511370000000000    0.6121139999999990 Cl
   0.6121139999999990    0.6121139999999990    0.1511370000000000 Cl
   0.1511370000000000    0.6121139999999990    0.6121139999999990 Cl
   0.1995450000000000    0.7194780000000000    0.1995450000000000 Cl
   0.1995450000000000    0.1995450000000000    0.7194780000000000 Cl
   0.7194780000000000    0.1995450000000000    0.1995450000000000 Cl
   0.8004549999999990    0.2805220000000000    0.8004549999999990 Cl
   0.8004549999999990    0.8004549999999990    0.2805220000000000 Cl
   0.2805220000000000    0.8004549999999990    0.8004549999999990 Cl
