Li2 Ca2 Pr2 Te2 O12
1.0
   5.8449429999999998    0.0000000000000000    0.0000000000000000
   0.0000000000000000    5.5671249999999999    0.0000000000000000
   0.0000000000000000    5.4758899999999997    7.7912379999999999
Li Ca Pr Te O
2 2 2 2 12
direct
   0.2800060000000000    0.5024990000000000    0.9970800000000001 Li
   0.7199940000000000    0.5024990000000000    0.4970800000000000 Li
   0.6935859999999990    0.2577629999999990    0.2523820000000000 Ca
   0.3064139999999990    0.2577629999999990    0.7523820000000000 Ca
   0.1814960000000000    0.7328319999999990    0.2527419999999990 Pr
   0.8185040000000000    0.7328319999999990    0.7527419999999990 Pr
   0.7399970000000000    0.9995189999999990    0.0006430000000000 Te
   0.2600030000000000    0.9995189999999990    0.5006429999999999 Te
   0.7089890000000000    0.1435570000000000    0.7601869999999999 O
   0.4581969999999990    0.7765949999999990    0.0499040000000000 O
   0.4351400000000000    0.3355970000000000    0.4534769999999990 O
   0.9225129999999990    0.6679109999999990    0.0457590000000000 O
   0.9767420000000000    0.2295849999999990    0.4472450000000000 O
   0.2227770000000000    0.8541430000000000    0.7405809999999990 O
   0.2910109999999990    0.1435570000000000    0.2601870000000000 O
   0.5418029999999990    0.7765949999999990    0.5499039999999999 O
   0.5648600000000000    0.3355970000000000    0.9534769999999990 O
   0.0774870000000000    0.6679109999999990    0.5457590000000000 O
   0.0232579999999990    0.2295849999999990    0.9472450000000000 O
   0.7772230000000000    0.8541430000000000    0.2405810000000000 O
