Ba12 Ta8 Ni4 O36
1.0
   5.8254159999999997    0.0000000000000000    0.0000000000000000
   0.0000000000000000   10.0899160000000006    7.1639249999999999
   0.0000000000000000  -10.0899160000000006    7.1639249999999999
Ba Ta Ni O
12 8 4 36
direct
   0.5000000000000000    0.2500000000000000    0.7500000000000000 Ba
   0.0000000000000000    0.0000000000000000    0.0000000000000000 Ba
   0.0000000000000000    0.5000000000000000    0.5000000000000000 Ba
   0.5000000000000000    0.7500000000000000    0.2500000000000000 Ba
   0.0000000000000000    0.5025189999999990    0.8358519999999990 Ba
   0.5000000000000000    0.2525190000000000    0.0858520000000000 Ba
   0.5000000000000000    0.7525189999999990    0.5858519999999990 Ba
   0.0000000000000000    0.0025190000000000    0.3358520000000000 Ba
   0.5000000000000000    0.7474810000000000    0.9141480000000000 Ba
   0.0000000000000000    0.4974809999999991    0.1641480000000000 Ba
   0.0000000000000000    0.9974810000000000    0.6641480000000000 Ba
   0.5000000000000000    0.2474809999999990    0.4141479999999990 Ba
   0.5000000000000000    0.5048610000000000    0.6715280000000000 Ta
   0.0000000000000000    0.2548610000000000    0.9215280000000000 Ta
   0.0000000000000000    0.7548610000000000    0.4215279999999990 Ta
   0.5000000000000000    0.0048610000000000    0.1715279999999990 Ta
   0.0000000000000000    0.7451390000000000    0.0784720000000000 Ta
   0.5000000000000000    0.4951390000000000    0.3284720000000000 Ta
   0.5000000000000000    0.9951390000000000    0.8284720000000000 Ta
   0.0000000000000000    0.2451390000000000    0.5784720000000000 Ta
   0.5000000000000000    0.5000000000000000    0.0000000000000000 Ni
   0.0000000000000000    0.7500000000000000    0.7500000000000000 Ni
   0.0000000000000000    0.2500000000000000    0.2500000000000000 Ni
   0.5000000000000000    0.0000000000000000    0.5000000000000000 Ni
   0.0000000000000000    0.2500000000000000    0.7500000000000000 O
   0.5000000000000000    0.0000000000000000    0.0000000000000000 O
   0.5000000000000000    0.5000000000000000    0.5000000000000000 O
   0.0000000000000000    0.7500000000000000    0.2500000000000000 O
   0.7500000000000000    0.3750000000000000    0.6250000000000000 O
   0.2500000000000000    0.1250000000000000    0.8750000000000000 O
   0.2500000000000000    0.6250000000000000    0.3750000000000000 O
   0.7500000000000000    0.8750000000000000    0.1250000000000000 O
   0.2500000000000000    0.3750000000000000    0.6250000000000000 O
   0.7500000000000000    0.1250000000000000    0.8750000000000000 O
   0.7500000000000000    0.6250000000000000    0.3750000000000000 O
   0.2500000000000000    0.8750000000000000    0.1250000000000000 O
   0.7575729999999991    0.6305689999999990    0.0447110000000000 O
   0.2575730000000000    0.3805690000000000    0.2947110000000000 O
   0.2575730000000000    0.8805689999999990    0.7947109999999999 O
   0.7575729999999991    0.1305690000000000    0.5447109999999999 O
   0.2424260000000000    0.6305689999999990    0.0447110000000000 O
   0.7424259999999990    0.3805690000000000    0.2947110000000000 O
   0.7424259999999990    0.8805689999999990    0.7947109999999999 O
   0.2424260000000000    0.1305690000000000    0.5447109999999999 O
   0.0000000000000000    0.7517820000000000    0.9234979999999990 O
   0.5000000000000000    0.5017820000000000    0.1734979999999990 O
   0.5000000000000000    0.0017820000000000    0.6734979999999990 O
   0.0000000000000000    0.2517820000000000    0.4234980000000000 O
   0.2575719999999990    0.6194310000000000    0.7052889999999991 O
   0.7575719999999990    0.3694310000000000    0.9552889999999991 O
   0.7575719999999990    0.8694310000000000    0.4552890000000000 O
   0.2575719999999990    0.1194310000000000    0.2052890000000000 O
   0.7424280000000000    0.6194310000000000    0.7052889999999991 O
   0.2424279999999990    0.3694310000000000    0.9552889999999991 O
   0.2424279999999990    0.8694310000000000    0.4552890000000000 O
   0.7424280000000000    0.1194310000000000    0.2052890000000000 O
   0.5000000000000000    0.4982180000000000    0.8265030000000000 O
   0.0000000000000000    0.2482180000000000    0.0765030000000000 O
   0.0000000000000000    0.7482179999999991    0.5765030000000000 O
   0.5000000000000000    0.9982179999999991    0.3265030000000000 O
