Rb1 V1 F3
1.0
   4.1816721200000000    0.0000000000000000    0.0000000000000000
   0.0000000000000000    4.1817147200000004    0.0000000000000000
   0.0000000000000000    0.0000000000000000    4.1815762200000002
Rb V F
1 1 3
direct
   0.0000000000000000   -0.0000000000000000    0.0000000000000000 Rb
   0.5000000000000000    0.5000000000000000    0.5000000000000000 V
   0.0000000000000000    0.5000000000000000    0.5000000000000000 F
   0.5000000000000000   -0.0000000000000000    0.5000000000000000 F
   0.5000000000000000    0.5000000000000000   -0.0000000000000000 F
