Ba2 Na1 I1 O6
1.0
  -4.2330340000000000   -4.2330340000000000    0.0000000000000000
  -4.2330340000000000    0.0000000000000000   -4.2330340000000000
   0.0000000000000000   -4.2330340000000000   -4.2330340000000000
Ba Na I O
2 1 1 6
direct
   0.2500000000000000    0.2500000000000000    0.2500000000000000 Ba
   0.7500000000000000    0.7500000000000000    0.7500000000000000 Ba
   0.5000000000000000    0.5000000000000000    0.5000000000000000 Na
   0.0000000000000000    0.0000000000000000    0.0000000000000000 I
   0.7749220000000000    0.2250780000000000    0.2250780000000000 O
   0.7749220000000000    0.2250780000000000    0.7749220000000000 O
   0.7749220000000000    0.7749220000000000    0.2250780000000000 O
   0.2250780000000000    0.7749220000000000    0.7749220000000000 O
   0.2250780000000000    0.7749220000000000    0.2250780000000000 O
   0.2250780000000000    0.2250780000000000    0.7749220000000000 O
