Sr8 Ni4 Te4 O24
1.0
   3.2386509999999999   -4.6603029999999999    5.6853379999999998
   1.6548000000000000    4.6364749999999999    8.4327170000000002
  -6.5429189999999995   -4.6603029999999999    0.0463110000000000
Sr Ni Te O
8 4 4 24
direct
   0.6270160000000000    0.2501830000000000    0.3771990000000000 Sr
   0.8770159999999990    0.7501829999999990    0.6271990000000000 Sr
   0.1270160000000000    0.2501830000000000    0.8771990000000000 Sr
   0.3770159999999990    0.7501829999999990    0.1271990000000000 Sr
   0.8729840000000000    0.7498170000000000    0.1228010000000000 Sr
   0.1229840000000000    0.2498169999999990    0.3728010000000000 Sr
   0.3729840000000000    0.7498170000000000    0.6228009999999990 Sr
   0.6229840000000000    0.2498169999999990    0.8728009999999990 Sr
   0.7500000000000000    0.5000000000000000    0.2500000000000000 Ni
   0.0000000000000000    0.0000000000000000    0.5000000000000000 Ni
   0.2500000000000000    0.5000000000000000    0.7500000000000000 Ni
   0.5000000000000000    0.0000000000000000    0.0000000000000000 Ni
   0.5000000000000000    0.0000000000000000    0.5000000000000000 Te
   0.7500000000000000    0.5000000000000000    0.7500000000000000 Te
   0.0000000000000000    0.0000000000000000    0.0000000000000000 Te
   0.2500000000000000    0.5000000000000000    0.2500000000000000 Te
   0.6516590000000000    0.7595640000000000    0.4112230000000000 O
   0.9016590000000000    0.2595639999999990    0.6612230000000000 O
   0.1516590000000000    0.7595640000000000    0.9112230000000000 O
   0.4016590000000000    0.2595639999999990    0.1612230000000000 O
   0.8483410000000000    0.2404359999999990    0.0887770000000000 O
   0.0983410000000000    0.7404360000000000    0.3387770000000000 O
   0.3483410000000000    0.2404359999999990    0.5887770000000000 O
   0.5983410000000000    0.7404360000000000    0.8387770000000000 O
   0.7688469999999999    0.4659900000000000    0.4923760000000000 O
   0.0188470000000000    0.9659900000000001    0.7423759999999990 O
   0.2688470000000000    0.4659900000000000    0.9923759999999990 O
   0.5188469999999999    0.9659900000000001    0.2423759999999990 O
   0.4736140000000000    0.5340100000000001    0.2651640000000000 O
   0.7236140000000000    0.0340100000000000    0.5151640000000000 O
   0.9736140000000000    0.5340100000000001    0.7651640000000000 O
   0.2236139999999990    0.0340100000000000    0.0151639999999990 O
   0.7311529999999991    0.5340100000000001    0.0076240000000000 O
   0.9811529999999991    0.0340100000000000    0.2576239999999990 O
   0.2311530000000000    0.5340100000000001    0.5076240000000000 O
   0.4811530000000000    0.0340100000000000    0.7576240000000000 O
   0.0263860000000000    0.4659900000000000    0.2348360000000000 O
   0.2763859999999990    0.9659900000000001    0.4848360000000000 O
   0.5263860000000000    0.4659900000000000    0.7348359999999990 O
   0.7763859999999990    0.9659900000000001    0.9848359999999990 O
