Ag3 S1 I1
1.0
   3.5036290000000001   -3.5658080000000001    0.0000000000000000
   3.5036290000000001    3.5658080000000001    0.0000000000000000
  -0.1254610000000000    0.0000000000000000    4.9974660000000002
Ag S I
3 1 1
direct
   0.9219660000000000    0.0780339999999990    0.5000000000000000 Ag
   0.5000000000000000    0.9219660000000000    0.0780339999999990 Ag
   0.0780339999999990    0.5000000000000000    0.9219660000000000 Ag
   0.0000000000000000    0.0000000000000000    0.0000000000000000 S
   0.5000000000000000    0.5000000000000000    0.5000000000000000 I
