Ba2 Sc1 Ta1 O6
1.0
   0.0000000000000000    4.1574299999999997    4.1574299999999997
   4.1574299999999997    0.0000000000000000    4.1574299999999997
   4.1574299999999997    4.1574299999999997    0.0000000000000000
Ba Sc Ta O
2 1 1 6
direct
   0.2500000000000000    0.2500000000000000    0.2500000000000000 Ba
   0.7500000000000000    0.7500000000000000    0.7500000000000000 Ba
   0.5000000000000000    0.5000000000000000    0.5000000000000000 Sc
   0.0000000000000000    0.0000000000000000    0.0000000000000000 Ta
   0.7574339999999991    0.2425659999999990    0.2425659999999990 O
   0.2425659999999990    0.7574339999999991    0.7574339999999991 O
   0.2425659999999990    0.7574339999999991    0.2425659999999990 O
   0.7574339999999991    0.2425659999999990    0.7574339999999991 O
   0.2425659999999990    0.2425659999999990    0.7574339999999991 O
   0.7574339999999991    0.7574339999999991    0.2425659999999990 O
