K2 Li1 Sc1 F6
1.0
   0.0000000000000000    4.1448039999999997    4.1448039999999997
   4.1448039999999997    0.0000000000000000    4.1448039999999997
   4.1448039999999997    4.1448039999999997    0.0000000000000000
K Li Sc F
2 1 1 6
direct
   0.2500000000000000    0.2500000000000000    0.2500000000000000 K
   0.7500000000000000    0.7500000000000000    0.7500000000000000 K
   0.5000000000000000    0.5000000000000000    0.5000000000000000 Li
   0.0000000000000000    0.0000000000000000    0.0000000000000000 Sc
   0.2455870000000000    0.2455870000000000    0.7544130000000000 F
   0.2455870000000000    0.7544130000000000    0.7544130000000000 F
   0.7544130000000000    0.7544130000000000    0.2455870000000000 F
   0.2455870000000000    0.7544130000000000    0.2455870000000000 F
   0.7544130000000000    0.2455870000000000    0.7544130000000000 F
   0.7544130000000000    0.2455870000000000    0.2455870000000000 F
