Sr4 Co2 Te2 O12
1.0
   5.6968199999999998    0.0194060000000000   -0.0024590000000000
   0.0193880000000000    5.7248260000000002    0.0089730000000000
  -0.0037819999999990    0.0296729999999990    8.0040340000000008
Sr Co Te O
4 2 2 12
direct
   0.4822980000000000    0.4961190000000000    0.7497480000000000 Sr
   0.0184560000000000    0.9946689999999990    0.2504730000000000 Sr
   0.5177020000000000    0.5038810000000000    0.2502520000000000 Sr
   0.9815440000000000    0.0053310000000000    0.7495269999999991 Sr
   0.5000000000000000    0.0000000000000000    0.5000000000000000 Co
   0.0000000000000000    0.5000000000000000    0.0000000000000000 Co
   0.5000000000000000    0.0000000000000000    0.0000000000000000 Te
   0.0000000000000000    0.5000000000000000    0.5000000000000000 Te
   0.2218359999999990    0.2416050000000000    0.5325719999999990 O
   0.7197460000000000    0.2576219999999990    0.9667589999999990 O
   0.7781640000000000    0.7583949999999990    0.4674279999999990 O
   0.2802540000000000    0.7423780000000000    0.0332410000000000 O
   0.7403700000000001    0.2823319999999990    0.5327860000000000 O
   0.7623679999999990    0.7819389999999991    0.0330420000000000 O
   0.2376319999999990    0.2180609999999990    0.9669580000000000 O
   0.2596300000000000    0.7176680000000000    0.4672139999999990 O
   0.9921070000000000    0.4385250000000000    0.2599860000000000 O
   0.5062310000000000    0.9378510000000000    0.7595510000000000 O
   0.0078929999999990    0.5614749999999999    0.7400139999999999 O
   0.4937689999999990    0.0621489999999990    0.2404490000000000 O
