Cs2 K1 As1 F6
1.0
   0.0000000000000000    4.7055720000000001    4.7055720000000001
   4.7055720000000001    0.0000000000000000    4.7055720000000001
   4.7055720000000001    4.7055720000000001    0.0000000000000000
Cs K As F
2 1 1 6
direct
   0.7500000000000000    0.7500000000000000    0.7500000000000000 Cs
   0.2500000000000000    0.2500000000000000    0.2500000000000000 Cs
   0.5000000000000000    0.5000000000000000    0.5000000000000000 K
   0.0000000000000000    0.0000000000000000    0.0000000000000000 As
   0.7785000000000001    0.2215000000000000    0.2215000000000000 F
   0.2215000000000000    0.2215000000000000    0.7785000000000001 F
   0.2215000000000000    0.7785000000000001    0.7785000000000001 F
   0.2215000000000000    0.7785000000000001    0.2215000000000000 F
   0.7785000000000001    0.2215000000000000    0.7785000000000001 F
   0.7785000000000001    0.7785000000000001    0.2215000000000000 F
