Sr2 Mo2 O6
1.0
   5.7327060000000003   -0.0179889999999990   -0.0350810000000000
   2.8621989999999999   -4.0775379999999997    2.8566739999999999
   2.8978679999999999   -4.0967630000000002   -2.9199380000000001
Sr Mo O
2 2 6
direct
   0.7525720000000000    0.7433500000000001    0.7574280000000000 Sr
   0.2474279999999990    0.2566500000000000    0.2425719999999990 Sr
   0.5000000000000000    0.5000000000000000    0.5000000000000000 Mo
   0.0000000000000000    0.0000000000000000    0.0000000000000000 Mo
   0.7642369999999991    0.1825260000000000    0.3281900000000000 O
   0.2357630000000000    0.8174739999999990    0.6718100000000000 O
   0.2203679999999990    0.2794180000000000    0.7822800000000001 O
   0.2940520000000000    0.7082710000000000    0.1957880000000000 O
   0.7059480000000000    0.2917289999999990    0.8042119999999990 O
   0.7796320000000000    0.7205819999999999    0.2177200000000000 O
