K3 W1 F6
1.0
   0.0000023200000000    4.5149502500000001    4.5149487700000002
   4.5149522199999996    0.0000022800000000    4.5149488099999999
   4.5149523599999997    4.5149504199999999    0.0000021400000000
K W F
3 1 6
direct
   0.7499999900000001    0.7499999500000000    0.7499999300000000 K
   0.2500000400000000    0.2500000200000000    0.2500000200000000 K
   0.5000000100000001    0.4999999800000000    0.4999999900000000 K
  -0.0000009300000000    0.0000008900000000    0.0000009700000000 W
   0.2281420900000000    0.7718577700000000    0.2281412700000000 F
   0.7718573900000000    0.7718574400000000    0.2281427600000000 F
   0.2281425500000000    0.2281426200000000    0.7718572800000000 F
   0.2281419999999990    0.7718581600000001    0.7718581500000000 F
   0.7718587000000000    0.2281414500000000    0.7718579200000000 F
   0.7718581300000000    0.2281417200000000    0.2281417100000000 F
