K2 Na1 Ti1 O1 F5
1.0
  -2.9895320000000001    2.9895320000000001    4.2530099999999997
   2.9895320000000001   -2.9895320000000001    4.2530099999999997
   2.9895320000000001    2.9895320000000001   -4.2530099999999997
K Na Ti O F
2 1 1 1 5
direct
   0.7527370000000000    0.2527370000000000    0.5000000000000000 K
   0.2527370000000000    0.7527370000000000    0.5000000000000000 K
   0.4999900000000000    0.4999900000000000    0.0000000000000000 Na
   0.0201970000000000    0.0201970000000000    0.0000000000000000 Ti
   0.2218909999999990    0.2218909999999990    0.0000000000000000 O
   0.2257549999999990    0.2257549999999990    0.4599870000000000 F
   0.7657680000000000    0.2257549999999990    0.0000000000000000 F
   0.2257549999999990    0.7657680000000000    0.0000000000000000 F
   0.7657680000000000    0.7657680000000000    0.5400130000000000 F
   0.7694019999999990    0.7694019999999990    0.0000000000000000 F
