Ba1 La1 Mg1 Nb1 O6
1.0
   0.0000000000000000    4.0694530000000002    4.0694530000000002
   4.0694530000000002    0.0000000000000000    4.0694530000000002
   4.0694530000000002    4.0694530000000002    0.0000000000000000
Ba La Mg Nb O
1 1 1 1 6
direct
   0.7500000000000000    0.7500000000000000    0.7500000000000000 Ba
   0.2500000000000000    0.2500000000000000    0.2500000000000000 La
   0.0000000000000000    0.0000000000000000    0.0000000000000000 Mg
   0.5000000000000000    0.5000000000000000    0.5000000000000000 Nb
   0.7466020000000000    0.7466020000000000    0.2533980000000000 O
   0.7466020000000000    0.2533980000000000    0.7466020000000000 O
   0.2533980000000000    0.7466020000000000    0.7466020000000000 O
   0.7466020000000000    0.2533980000000000    0.2533980000000000 O
   0.2533980000000000    0.7466020000000000    0.2533980000000000 O
   0.2533980000000000    0.2533980000000000    0.7466020000000000 O
