K8 Na4 V4 O4 F20
1.0
   1.7364039999999989    4.9106189999999996    3.0078680000000002
 -10.3634070000000005    0.0000950000000000    5.9842919999999999
   3.4173930000000001   -4.8324670000000003    5.9200720000000002
K Na V O F
8 4 4 4 20
direct
   0.4999969999999990    0.4999809999999991    0.2554440000000000 K
   0.0000100000000000    0.7499589999999990    0.7556010000000000 K
   0.5000010000000000    0.0000260000000000    0.2554039999999990 K
   0.0000150000000000    0.2499749999999990    0.7555400000000001 K
   0.5000010000000000    0.4999710000000000    0.7554339999999991 K
   0.0000130000000000    0.7499770000000000    0.2554740000000000 K
   0.5000040000000000    0.0000190000000000    0.7555029999999990 K
   0.0000180000000000    0.2499789999999990    0.2555100000000000 K
   0.9999990000000000    0.4999760000000000    0.5027560000000000 Na
   0.5000030000000000    0.7499779999999990    0.0025889999999990 Na
   0.0000100000000000    0.0000040000000000    0.5027590000000000 Na
   0.5000040000000000    0.2499779999999990    0.0025390000000000 Na
   0.9999819999999990    0.4999269999999991    0.0179600000000000 V
   0.4999650000000000    0.7500370000000000    0.5172880000000000 V
   0.0000470000000000    0.0000570000000000    0.0179620000000000 V
   0.5000410000000000    0.2499140000000000    0.5172680000000000 V
   0.9999900000000000    0.4999789999999991    0.2191880000000000 O
   0.4999980000000000    0.7500209999999990    0.7186060000000000 O
   0.9999910000000000    0.0001030000000000    0.2191820000000000 O
   0.4999980000000000    0.2499740000000000    0.7185520000000000 O
   0.9999640000000000    0.4999940000000000    0.7747269999999991 F
   0.4999949999999990    0.7500060000000000    0.2741730000000000 F
   0.0000100000000000    0.0002100000000000    0.7748229999999990 F
   0.5000100000000001    0.2499930000000000    0.2740620000000000 F
   0.7303890000000000    0.6340350000000000    0.4934540000000000 F
   0.2310849999999990    0.8843430000000000    0.9942150000000000 F
   0.7304800000000000    0.1339970000000000    0.4934770000000000 F
   0.2311030000000000    0.3843050000000000    0.9942139999999990 F
   0.7303820000000000    0.3659420000000000    0.4934429999999990 F
   0.2310600000000000    0.6156100000000001    0.9942709999999991 F
   0.7304010000000000    0.8660209999999990    0.4934639999999990 F
   0.2311889999999990    0.1157079999999990    0.9942449999999990 F
   0.2695320000000000    0.6340410000000000    0.4935210000000000 F
   0.7689290000000000    0.8843460000000000    0.9942230000000000 F
   0.2695400000000000    0.1340039999999990    0.4934840000000000 F
   0.7688769999999990    0.3842330000000000    0.9942190000000000 F
   0.2696310000000000    0.3659429999999990    0.4934469999999990 F
   0.7689300000000001    0.6156110000000000    0.9942860000000000 F
   0.2695400000000000    0.8661460000000000    0.4934759999999990 F
   0.7688689999999990    0.1156789999999990    0.9942179999999990 F
