Sm4 Y4 O12
1.0
   5.8790839999999998    0.0000000000000000    0.0000000000000000
   0.0000000000000000    6.0096280000000002    0.0000000000000000
   0.0000000000000000    0.0000000000000000    8.5085569999999997
Sm Y O
4 4 12
direct
   0.9952059999999990    0.4660660000000000    0.4808810000000000 Sm
   0.5047940000000000    0.9660660000000000    0.4808810000000000 Sm
   0.4952060000000000    0.0339340000000000    0.9808810000000000 Sm
   0.0047940000000000    0.5339340000000000    0.9808810000000000 Sm
   0.0011860000000000    0.9787389999999990    0.2130979999999990 Y
   0.4988140000000000    0.4787389999999990    0.2130979999999990 Y
   0.5011860000000000    0.5212610000000000    0.7130980000000000 Y
   0.9988140000000000    0.0212610000000000    0.7130980000000000 Y
   0.1510290000000000    0.3768700000000000    0.7517530000000000 O
   0.1328000000000000    0.0855279999999990    0.4536929999999990 O
   0.2069889999999990    0.2621300000000000    0.1121939999999990 O
   0.2930109999999990    0.7621300000000001    0.1121939999999990 O
   0.3672000000000000    0.5855279999999990    0.4536929999999990 O
   0.3489710000000000    0.8768700000000000    0.7517530000000000 O
   0.6510290000000000    0.1231300000000000    0.2517530000000000 O
   0.6328000000000000    0.4144720000000000    0.9536929999999991 O
   0.7069890000000000    0.2378700000000000    0.6121940000000000 O
   0.7930109999999990    0.7378700000000000    0.6121940000000000 O
   0.8672000000000001    0.9144720000000000    0.9536929999999991 O
   0.8489709999999990    0.6231300000000001    0.2517530000000000 O
