Ba4 Nb2 Fe2 O12
1.0
  -4.1078619999999999   -4.1076059999999996   -0.0000540000000000
  -0.0000650000000000    4.1076170000000003   -4.1079129999999999
   4.1079720000000002   -8.2153749999999999   -4.1079889999999999
Ba Nb Fe O
4 2 2 12
direct
   0.6249979999999991    0.3749940000000000    0.1249929999999990 Ba
   0.1250000000000000    0.8749979999999991    0.6249910000000000 Ba
   0.8749929999999990    0.1250030000000000    0.3750119999999990 Ba
   0.3750060000000000    0.6250040000000000    0.8749979999999991 Ba
   0.2499960000000000    0.7500040000000000    0.2500170000000000 Nb
   0.7500140000000000    0.2499990000000000    0.7499840000000000 Nb
   0.5000120000000000    0.4999920000000000    0.4999949999999990 Fe
   0.0000090000000000    0.0000120000000000    0.0000000000000000 Fe
   0.1263950000000000    0.3791630000000000    0.1263810000000000 O
   0.6263970000000000    0.8791730000000000    0.6263890000000000 O
   0.3736089999999990    0.6263919999999999    0.3736200000000000 O
   0.8736149999999990    0.1263900000000000    0.8736300000000000 O
   0.6208330000000000    0.8736010000000000    0.1263800000000000 O
   0.1208220000000000    0.3736009999999990    0.6263900000000000 O
   0.3735940000000000    0.1208230000000000    0.3736120000000000 O
   0.8736020000000000    0.6208340000000000    0.8736210000000000 O
   0.1263860000000000    0.8736119999999991    0.1263729999999990 O
   0.6263850000000000    0.3736100000000001    0.6263800000000000 O
   0.8791730000000000    0.6263980000000000    0.3736130000000000 O
   0.3791600000000001    0.1263969999999990    0.8736229999999990 O
