Cs2 K1 V1 F6
1.0
  -4.6147980000000004   -4.6147980000000004    0.0000000000000000
  -4.6147980000000004    0.0000000000000000   -4.6147980000000004
   0.0000000000000000   -4.6147980000000004   -4.6147980000000004
Cs K V F
2 1 1 6
direct
   0.7500000000000000    0.7500000000000000    0.7500000000000000 Cs
   0.2500000000000000    0.2500000000000000    0.2500000000000000 Cs
   0.0000000000000000    0.0000000000000000    0.0000000000000000 K
   0.5000000000000000    0.5000000000000000    0.5000000000000000 V
   0.7157140000000000    0.2842860000000000    0.7157140000000000 F
   0.7157140000000000    0.2842860000000000    0.2842860000000000 F
   0.2842860000000000    0.7157140000000000    0.7157140000000000 F
   0.2842860000000000    0.2842860000000000    0.7157140000000000 F
   0.2842860000000000    0.7157140000000000    0.2842860000000000 F
   0.7157140000000000    0.7157140000000000    0.2842860000000000 F
