Rb2 Cr6 S10
1.0
   1.7665100900000001    9.7888061799999999   -0.0001940000000000
  -1.7665100900000001    9.7888061799999999   -0.0001940000000000
  -0.0000000000000000    6.6318657200000004   10.2630350499999992
Rb Cr S
2 6 10
direct
   0.7460396700000000    0.7460396700000000    0.1671606500000000 Rb
   0.2539603300000000    0.2539603300000000    0.8328393500000000 Rb
   0.0178545500000000    0.0178545500000000    0.2289782900000000 Cr
   0.1647612600000000    0.1647612600000000    0.6105605000000000 Cr
   0.5000000000000000    0.5000000000000000   -0.0000000000000000 Cr
   0.9821454500000000    0.9821454500000000    0.7710217100000000 Cr
   0.8352387400000000    0.8352387400000000    0.3894395000000000 Cr
   0.5000000000000000    0.5000000000000000    0.5000000000000000 Cr
   0.5922066600000000    0.5922066600000000    0.0803491300000000 S
   0.5745669900000000    0.5745669900000000    0.6083010200000000 S
   0.9269154300000000    0.9269154300000000    0.1519436100000000 S
   0.4254330100000000    0.4254330100000000    0.3916989800000000 S
   0.0803130500000000    0.0803130500000000    0.3490887100000000 S
   0.0730845700000000    0.0730845700000000    0.8480563900000000 S
   0.7431468000000000    0.7431468000000000    0.6164535600000001 S
   0.4077933400000000    0.4077933400000000    0.9196508700000000 S
   0.2568532000000000    0.2568532000000000    0.3835464400000000 S
   0.9196869500000000    0.9196869500000000    0.6509112900000000 S
