Sr4 Ta4 N4 O8
1.0
   5.7311209999999999    0.0000000000000000    0.0000000000000000
  -0.0093940000000000    5.7428780000000001    0.0000000000000000
  -0.0024240000000000   -0.0077080000000000    8.1898060000000008
Sr Ta N O
4 4 4 8
direct
   0.0039200000000000    0.0032849999999990    0.2487770000000000 Sr
   0.5138159999999991    0.5082780000000000    0.2485470000000000 Sr
   0.4889909999999991    0.5056260000000000    0.7249740000000000 Sr
   0.9788310000000000    0.0029649999999990    0.7256049999999991 Sr
   0.4971560000000000    0.0038529999999990    0.9981089999999990 Ta
   0.4947890000000000    0.0174600000000000    0.4852769999999990 Ta
   0.9995330000000000    0.5051540000000000    0.9736939999999999 Ta
   0.9970159999999991    0.4883679999999990    0.4918410000000000 Ta
   0.0028160000000000    0.5391980000000000    0.7377260000000000 N
   0.7322670000000000    0.2687680000000000    0.5018509999999990 N
   0.2316140000000000    0.2293480000000000    0.5032300000000001 N
   0.4964840000000000    0.0313180000000000    0.2303460000000000 N
   0.5104830000000000    0.9486990000000000    0.7359979999999990 O
   0.7790049999999999    0.7724240000000000    0.4620110000000000 O
   0.7795590000000000    0.7769870000000000    0.0044050000000000 O
   0.2798190000000000    0.7175539999999990    0.0037370000000000 O
   0.2786860000000000    0.7233160000000000    0.4633359999999990 O
   0.9937149999999991    0.4625979999999990    0.2291689999999990 O
   0.7209479999999990    0.2762000000000000    0.9618700000000001 O
   0.2205510000000000    0.2186020000000000    0.9614990000000000 O
