Cs2 In1 Ag1 F6
1.0
   0.0000000000000000    4.6249240000000000    4.6249240000000000
   4.6249240000000000    0.0000000000000000    4.6249240000000000
   4.6249240000000000    4.6249240000000000    0.0000000000000000
Cs In Ag F
2 1 1 6
direct
   0.7500000000000000    0.7500000000000000    0.7500000000000000 Cs
   0.2500000000000000    0.2500000000000000    0.2500000000000000 Cs
   0.0000000000000000    0.0000000000000000    0.0000000000000000 In
   0.5000000000000000    0.5000000000000000    0.5000000000000000 Ag
   0.7706809999999999    0.2293190000000000    0.2293190000000000 F
   0.2293190000000000    0.2293190000000000    0.7706809999999999 F
   0.2293190000000000    0.7706809999999999    0.7706809999999999 F
   0.2293190000000000    0.7706809999999999    0.2293190000000000 F
   0.7706809999999999    0.2293190000000000    0.7706809999999999 F
   0.7706809999999999    0.7706809999999999    0.2293190000000000 F
