Ba1 La1 Mg1 Ta1 O6
1.0
   0.0000000000000000    4.0627030000000000    4.0627030000000000
   4.0627030000000000    0.0000000000000000    4.0627030000000000
   4.0627030000000000    4.0627030000000000    0.0000000000000000
Ba La Mg Ta O
1 1 1 1 6
direct
   0.7500000000000000    0.7500000000000000    0.7500000000000000 Ba
   0.2500000000000000    0.2500000000000000    0.2500000000000000 La
   0.0000000000000000    0.0000000000000000    0.0000000000000000 Mg
   0.5000000000000000    0.5000000000000000    0.5000000000000000 Ta
   0.7455349999999999    0.2544650000000000    0.2544650000000000 O
   0.2544650000000000    0.2544650000000000    0.7455349999999999 O
   0.2544650000000000    0.7455349999999999    0.2544650000000000 O
   0.7455349999999999    0.2544650000000000    0.7455349999999999 O
   0.7455349999999999    0.7455349999999999    0.2544650000000000 O
   0.2544650000000000    0.7455349999999999    0.7455349999999999 O
