Rb2 Li1 Sc1 Cl6
1.0
   0.0000000000000000    5.1161779999999997    5.1161779999999997
   5.1161779999999997    0.0000000000000000    5.1161779999999997
   5.1161779999999997    5.1161779999999997    0.0000000000000000
Rb Li Sc Cl
2 1 1 6
direct
   0.7500000000000000    0.7500000000000000    0.7500000000000000 Rb
   0.2500000000000000    0.2500000000000000    0.2500000000000000 Rb
   0.5000000000000000    0.5000000000000000    0.5000000000000000 Li
   0.0000000000000000    0.0000000000000000    0.0000000000000000 Sc
   0.7553639999999990    0.2446360000000000    0.2446360000000000 Cl
   0.2446360000000000    0.2446360000000000    0.7553639999999990 Cl
   0.2446360000000000    0.7553639999999990    0.7553639999999990 Cl
   0.2446360000000000    0.7553639999999990    0.2446360000000000 Cl
   0.7553639999999990    0.2446360000000000    0.7553639999999990 Cl
   0.7553639999999990    0.7553639999999990    0.2446360000000000 Cl
