Ba4 Zr4 S12
1.0
   7.0635612999999999    0.0000000000000000    0.0000000000000000
   0.0000000000000000    7.1344888099999997    0.0000000000000000
   0.0000000000000000    0.0000000000000000   10.0418237599999998
Ba Zr S
4 4 12
direct
   0.0087500800000000    0.0430272500000000    0.2500000000000000 Ba
   0.5087500800000000    0.4569727500000000    0.7500000000000000 Ba
   0.4912499200000000    0.5430272500000000    0.2500000000000000 Ba
   0.9912499200000000    0.9569727500000000    0.7500000000000000 Ba
   0.5000000000000000   -0.0000000000000000    0.0000000000000000 Zr
  -0.0000000000000000    0.5000000000000000    0.0000000000000000 Zr
  -0.0000000000000000    0.5000000000000000    0.5000000000000000 Zr
   0.5000000000000000   -0.0000000000000000    0.5000000000000000 Zr
   0.5608972600000001    0.9941581600000000    0.2500000000000000 S
   0.0608972600000000    0.5058418400000000    0.7500000000000000 S
   0.9391027400000000    0.4941581600000000    0.2500000000000000 S
   0.4391027400000000    0.0058418400000000    0.7500000000000000 S
   0.7866180500000001    0.2132557900000000    0.9681785700000001 S
   0.2866180500000000    0.2867442100000000    0.0318214300000000 S
   0.7133819500000000    0.7132557900000001    0.5318214300000000 S
   0.2133819500000000    0.7867442100000001    0.4681785700000000 S
   0.2133819500000000    0.7867442100000001    0.0318214300000000 S
   0.7133819500000000    0.7132557900000001    0.9681785700000001 S
   0.2866180500000000    0.2867442100000000    0.4681785700000000 S
   0.7866180500000001    0.2132557900000000    0.5318214300000000 S
