Rb2 Na1 Mo1 F6
1.0
   0.0000000000000000    4.4129379999999996    4.4129379999999996
   4.4129379999999996    0.0000000000000000    4.4129379999999996
   4.4129379999999996    4.4129379999999996    0.0000000000000000
Rb Na Mo F
2 1 1 6
direct
   0.7500000000000000    0.7500000000000000    0.7500000000000000 Rb
   0.2500000000000000    0.2500000000000000    0.2500000000000000 Rb
   0.5000000000000000    0.5000000000000000    0.5000000000000000 Na
   0.0000000000000000    0.0000000000000000    0.0000000000000000 Mo
   0.7616609999999990    0.7616609999999990    0.2383390000000000 F
   0.7616609999999990    0.2383390000000000    0.7616609999999990 F
   0.2383390000000000    0.7616609999999990    0.2383390000000000 F
   0.7616609999999990    0.2383390000000000    0.2383390000000000 F
   0.2383390000000000    0.2383390000000000    0.7616609999999990 F
   0.2383390000000000    0.7616609999999990    0.7616609999999990 F
