ADDGRID = True
ALGO = Fast
EDIFF = 1e-06
EFIELD_PEAD = 1.7906899642427563e-06 1.06970298126287e-05 -0.0029999803944330437
ENCUT = 520.0
IBRION = -1
ISMEAR = 0
ISPIN = 2
ISYM = 0
LASPH = True
LCALCEPS = False
LCALCPOL = True
LCHARG = False
LMAXMIX = 4
LORBIT = 11
LREAL = False
LWAVE = False
MAGMOM = 1*0.002 1*3.041 2*3.023 1*2.999 1*3.041 2*-0.07100000000000001 2*-0.123 4*-0.096
NELM = 100
NSW = 0
PREC = Accurate
SIGMA = 0.05
SKIP_EDOTP = True
SYMPREC = 1e-08
