La8 Al7 B1 O24
1.0
   7.5748860000000002    0.0000000000000000    0.0000000000000000
   0.0000000000000000    7.5748860000000002    0.0000000000000000
   0.0000000000000000    0.0000000000000000    7.5748860000000002
La Al B O
8 7 1 24
direct
   0.2473530000000000    0.2473530000000000    0.2473530000000000 La
   0.2473530000000000    0.2473530000000000    0.7526470000000000 La
   0.2473530000000000    0.7526470000000000    0.2473530000000000 La
   0.2473530000000000    0.7526470000000000    0.7526470000000000 La
   0.7526470000000000    0.2473530000000000    0.2473530000000000 La
   0.7526470000000000    0.2473530000000000    0.7526470000000000 La
   0.7526470000000000    0.7526470000000000    0.2473530000000000 La
   0.7526470000000000    0.7526470000000000    0.7526470000000000 La
   0.0000000000000000    0.0000000000000000    0.5000000000000000 Al
   0.0000000000000000    0.5000000000000000    0.0000000000000000 Al
   0.0000000000000000    0.5000000000000000    0.5000000000000000 Al
   0.5000000000000000    0.0000000000000000    0.0000000000000000 Al
   0.5000000000000000    0.0000000000000000    0.5000000000000000 Al
   0.5000000000000000    0.5000000000000000    0.0000000000000000 Al
   0.5000000000000000    0.5000000000000000    0.5000000000000000 Al
   0.0000000000000000    0.0000000000000000    0.0000000000000000 B
   0.0000000000000000    0.2365229999999990    0.0000000000000000 O
   0.0000000000000000    0.2480540000000000    0.5000000000000000 O
   0.0000000000000000    0.7634770000000000    0.0000000000000000 O
   0.0000000000000000    0.7519460000000000    0.5000000000000000 O
   0.5000000000000000    0.2480540000000000    0.0000000000000000 O
   0.5000000000000000    0.2489009999999990    0.5000000000000000 O
   0.5000000000000000    0.7519460000000000    0.0000000000000000 O
   0.5000000000000000    0.7510990000000000    0.5000000000000000 O
   0.0000000000000000    0.0000000000000000    0.2365229999999990 O
   0.0000000000000000    0.0000000000000000    0.7634770000000000 O
   0.0000000000000000    0.5000000000000000    0.2480540000000000 O
   0.0000000000000000    0.5000000000000000    0.7519460000000000 O
   0.5000000000000000    0.0000000000000000    0.2480540000000000 O
   0.5000000000000000    0.0000000000000000    0.7519460000000000 O
   0.5000000000000000    0.5000000000000000    0.2489009999999990 O
   0.5000000000000000    0.5000000000000000    0.7510990000000000 O
   0.2365229999999990    0.0000000000000000    0.0000000000000000 O
   0.2480540000000000    0.0000000000000000    0.5000000000000000 O
   0.2480540000000000    0.5000000000000000    0.0000000000000000 O
   0.2489009999999990    0.5000000000000000    0.5000000000000000 O
   0.7634770000000000    0.0000000000000000    0.0000000000000000 O
   0.7519460000000000    0.0000000000000000    0.5000000000000000 O
   0.7519460000000000    0.5000000000000000    0.0000000000000000 O
   0.7510990000000000    0.5000000000000000    0.5000000000000000 O
