Y4 Al4 O12
1.0
   5.1760310499999997   -0.0000000000000000    0.0000000000000000
  -0.0000000000000000    5.3173585100000000    0.0000000000000000
   0.0000000000000000    0.0000000000000000    7.3724931700000003
Y Al O
4 4 12
direct
   0.0118507400000000    0.9476540100000000    0.7500000000000000 Y
   0.5118507400000000    0.5523459900000001    0.2500000000000000 Y
   0.4881492600000000    0.4476540100000000    0.7500000000000000 Y
   0.9881492600000000    0.0523459900000000    0.2500000000000000 Y
   0.0000000000000000    0.5000000000000000    0.0000000000000000 Al
   0.5000000000000000   -0.0000000000000000    0.0000000000000000 Al
   0.5000000000000000   -0.0000000000000000    0.5000000000000000 Al
   0.0000000000000000    0.5000000000000000    0.5000000000000000 Al
   0.7063289900000000    0.2934483100000000    0.4560844200000000 O
   0.2063289900000000    0.2065516900000000    0.5439155800000001 O
   0.7936710100000001    0.7934483100000000    0.0439155800000000 O
   0.2936710100000000    0.7065516900000001    0.9560844200000000 O
   0.2936710100000000    0.7065516900000001    0.5439155800000001 O
   0.7936710100000001    0.7934483100000000    0.4560844200000000 O
   0.2063289900000000    0.2065516900000000    0.9560844200000000 O
   0.7063289900000000    0.2934483100000000    0.0439155800000000 O
   0.0831894200000000    0.4787240300000000    0.2500000000000000 O
   0.5831894200000000    0.0212759700000000    0.7500000000000000 O
   0.4168105800000000    0.9787240300000000    0.2500000000000000 O
   0.9168105800000000    0.5212759700000000    0.7500000000000000 O
