Ba1 La1 Zn1 Ru1 O6
1.0
  -2.8288159999999989    2.8288159999999989    4.1165659999999997
   2.8288159999999989   -2.8288159999999989    4.1165659999999997
   2.8288159999999989    2.8288159999999989   -4.1165659999999997
Ba La Zn Ru O
1 1 1 1 6
direct
   0.5000000000000000    0.5000000000000000    0.0000000000000000 Ba
   0.0000000000000000    0.0000000000000000    0.0000000000000000 La
   0.7500000000000000    0.2500000000000000    0.5000000000000000 Zn
   0.2500000000000000    0.7500000000000000    0.5000000000000000 Ru
   0.0073989999999990    0.5073989999999990    0.5000000000000000 O
   0.9763470000000000    0.9607950000000000    0.3971349999999990 O
   0.0392050000000000    0.4363400000000001    0.0155520000000000 O
   0.4926009999999990    0.9926010000000000    0.5000000000000000 O
   0.4207880000000000    0.0236530000000000    0.9844480000000000 O
   0.5636600000000000    0.5792119999999999    0.6028650000000000 O
