Ca4 Zr4 O12
1.0
   5.5850057199999998   -0.0000000000000000    0.0000000000000000
   0.0000000000000000    5.7780967800000003    0.0000000000000000
   0.0000000000000000    0.0000000000000000    8.0173802300000006
Ca Zr O
4 4 12
direct
   0.0135435800000000    0.9480419000000000    0.2500000000000000 Ca
   0.5135435800000000    0.5519581000000000    0.7500000000000000 Ca
   0.4864564200000000    0.4480419000000000    0.2500000000000000 Ca
   0.9864564200000000    0.0519581000000000    0.7500000000000000 Ca
  -0.0000000000000000    0.5000000000000000    0.0000000000000000 Zr
   0.5000000000000000    0.0000000000000000    0.0000000000000000 Zr
   0.5000000000000000    0.0000000000000000    0.5000000000000000 Zr
  -0.0000000000000000    0.5000000000000000    0.5000000000000000 Zr
   0.3023748200000000    0.7003078900000000    0.4434155100000000 O
   0.8023748200000000    0.7996921100000001    0.5565844900000000 O
   0.1976251800000000    0.2003078900000000    0.0565844900000000 O
   0.6976251800000001    0.2996921100000000    0.9434155100000000 O
   0.6976251800000001    0.2996921100000000    0.5565844900000000 O
   0.1976251800000000    0.2003078900000000    0.4434155100000000 O
   0.8023748200000000    0.7996921100000001    0.9434155100000000 O
   0.3023748200000000    0.7003078900000000    0.0565844900000000 O
   0.6068461800000000    0.0415588900000000    0.2500000000000000 O
   0.1068461800000000    0.4584411100000000    0.7500000000000000 O
   0.8931538200000000    0.5415588900000000    0.2500000000000000 O
   0.3931538200000000    0.9584411100000000    0.7500000000000000 O
