Cs2 Ag1 As1 Br6
1.0
   0.0000000000000000    5.4821675200000000    5.4821675200000000
   5.4821675200000000    0.0000000000000000    5.4821675200000000
   5.4821675200000000    5.4821675200000000   -0.0000000000000000
Cs Ag As Br
2 1 1 6
direct
   0.7500000000000000    0.7500000000000000    0.7500000000000000 Cs
   0.2500000000000000    0.2500000000000000    0.2500000000000000 Cs
   0.5000000000000000    0.5000000000000000    0.5000000000000000 Ag
   0.0000000000000000    0.0000000000000000   -0.0000000000000000 As
   0.7567995300000000    0.2432004700000000    0.2432004700000000 Br
   0.2432004700000000    0.2432004700000000    0.7567995300000000 Br
   0.2432004700000000    0.7567995300000000    0.7567995300000000 Br
   0.2432004700000000    0.7567995300000000    0.2432004700000000 Br
   0.7567995300000000    0.2432004700000000    0.7567995300000000 Br
   0.7567995300000000    0.7567995300000000    0.2432004700000000 Br
