K4 Cd4 F12
1.0
   6.1810856200000002    0.0000000000000000    0.0000000000000000
   0.0000000000000000    6.0820905800000000   -0.0000010000000000
   0.0000000000000000   -0.0000010000000000    8.6413687299999999
K Cd F
4 4 12
direct
   0.9564568300000000    0.0100000900000000    0.7500000000000000 K
   0.4564578300000000    0.4899999100000000    0.7500000000000000 K
   0.5435421700000000    0.5100000900000000    0.2500000000000000 K
   0.0435431700000000    0.9899999100000000    0.2500000000000000 K
  -0.0000000000000000    0.5000000000000000    0.0000000000000000 Cd
   0.5000000000000000    0.0000000000000000    0.5000000000000000 Cd
   0.5000000000000000   -0.0000000000000000    0.0000000000000000 Cd
  -0.0000000000000000    0.5000000000000000    0.5000000000000000 Cd
   0.7070683400000000    0.2946251900000000    0.5428080100000000 F
   0.2070683400000000    0.2053748100000000    0.9571919900000000 F
   0.7929316600000000    0.7946261900000000    0.4571919900000000 F
   0.2929316600000000    0.7053748100000000    0.0428080100000000 F
   0.2929316600000000    0.7053748100000000    0.4571919900000000 F
   0.7929316600000000    0.7946251900000000    0.0428080100000000 F
   0.2070683400000000    0.2053738100000000    0.5428080100000000 F
   0.7070683400000000    0.2946251900000000    0.9571919900000000 F
   0.5268076500000000    0.9184415700000000    0.7500000000000000 F
   0.0268076500000000    0.5815584300000000    0.7500000000000000 F
   0.9731923500000000    0.4184415700000000    0.2500000000000000 F
   0.4731923500000000    0.0815584300000000    0.2500000000000000 F
