Cs2 Na1 In1 F6
1.0
  -0.0000000000000000    4.4366716899999998    4.4366716899999998
   4.4366716899999998    0.0000000000000000    4.4366716899999998
   4.4366716899999998    4.4366716899999998   -0.0000000000000000
Cs Na In F
2 1 1 6
direct
   0.7500000000000000    0.7500000000000000    0.7500000000000000 Cs
   0.2500000000000000    0.2500000000000000    0.2500000000000000 Cs
   0.5000000000000000    0.5000000000000000    0.5000000000000000 Na
  -0.0000000000000000    0.0000000000000000   -0.0000000000000000 In
   0.7634952400000000    0.2365047600000000    0.2365047600000000 F
   0.2365047600000000    0.2365047600000000    0.7634952400000000 F
   0.2365047600000000    0.7634952400000000    0.7634952400000000 F
   0.2365047600000000    0.7634952400000000    0.2365047600000000 F
   0.7634952400000000    0.2365047600000000    0.7634952400000000 F
   0.7634952400000000    0.7634952400000000    0.2365047600000000 F
