Rb1 Cr5 S8
1.0
   3.4036720100000002   -0.0000000000000000   -0.6587877999999990
  -0.4189968600000000    8.4707487100000005   -2.1647784300000001
  -0.0175795500000000   -0.0190046400000000    9.0312251999999997
Rb Cr S
1 5 8
direct
   0.4989298400000000    0.4991878900000000    0.9978596900000000 Rb
   0.2948741200000000    0.6653259400000000    0.5897482400000000 Cr
   0.7051983900000001    0.3273110600000000    0.4103967800000000 Cr
   0.3406379500000000    0.0206295100000000    0.6812749100000001 Cr
   0.6537198100000000    0.9892974600000001    0.3074406200000000 Cr
   0.0062940800000000    0.9981222100000000    0.0125881700000000 Cr
   0.2376010300000000    0.1546418700000000    0.4752010500000000 S
   0.7585330400000000    0.8463782600000000    0.5170670700000000 S
   0.1717997600000000    0.4830111400000000    0.3435985300000000 S
   0.8286041800000000    0.5136972300000000    0.6572093600000000 S
   0.0900485900000000    0.8271176800000000    0.1800971800000000 S
   0.9143325100000000    0.1634984100000000    0.8286650300000000 S
   0.4258031400000000    0.8508923800000000    0.8516062700000000 S
   0.5736235500000000    0.1608889600000000    0.1472471100000000 S
