K2 Li1 As1 F6
1.0
   0.0000000000000000    4.1724009999999998    4.1724009999999998
   4.1724009999999998    0.0000000000000000    4.1724009999999998
   4.1724009999999998    4.1724009999999998    0.0000000000000000
K Li As F
2 1 1 6
direct
   0.7500000000000000    0.7500000000000000    0.7500000000000000 K
   0.2500000000000000    0.2500000000000000    0.2500000000000000 K
   0.5000000000000000    0.5000000000000000    0.5000000000000000 Li
   0.0000000000000000    0.0000000000000000    0.0000000000000000 As
   0.7516600000000001    0.2483400000000000    0.2483400000000000 F
   0.2483400000000000    0.2483400000000000    0.7516600000000001 F
   0.2483400000000000    0.7516600000000001    0.7516600000000001 F
   0.2483400000000000    0.7516600000000001    0.2483400000000000 F
   0.7516600000000001    0.2483400000000000    0.7516600000000001 F
   0.7516600000000001    0.7516600000000001    0.2483400000000000 F
