Ba3 Ta2 Co1 O9
1.0
   2.8758987000000000   -4.9812020900000000    0.0000000000000000
   2.8758987000000000    4.9812020900000000   -0.0000000000000000
   0.0000000000000000   -0.0000000000000000    7.0818505900000002
Ba Ta Co O
3 2 1 9
direct
  -0.0000000000000000   -0.0000000000000000    0.0000000000000000 Ba
   0.3333330000000000    0.6666670000000000    0.6608918600000000 Ba
   0.6666670000000000    0.3333330000000000    0.3391081400000000 Ba
   0.3333330000000000    0.6666670000000000    0.1778449600000000 Ta
   0.6666670000000000    0.3333330000000000    0.8221550400000001 Ta
  -0.0000000000000000   -0.0000000000000000    0.5000000000000000 Co
   0.1701637900000000    0.8298362100000000    0.3267838300000000 O
   0.8298362100000000    0.1701637900000000    0.6732161700000000 O
   0.1701637900000000    0.3403275900000000    0.3267838300000000 O
   0.8298362100000000    0.6596724100000000    0.6732161700000000 O
   0.6596724100000000    0.8298362100000000    0.3267838300000000 O
   0.3403275900000000    0.1701637900000000    0.6732161700000000 O
   0.5000000000000000   -0.0000000000000000    0.0000000000000000 O
  -0.0000000000000000    0.5000000000000000    0.0000000000000000 O
   0.5000000000000000    0.5000000000000000    0.0000000000000000 O
