Na1 Tl2 Ga1 F6
1.0
   0.0000000000000000    4.2833660000000000    4.2833660000000000
   4.2833660000000000    0.0000000000000000    4.2833660000000000
   4.2833660000000000    4.2833660000000000    0.0000000000000000
Na Tl Ga F
1 2 1 6
direct
   0.5000000000000000    0.5000000000000000    0.5000000000000000 Na
   0.2500000000000000    0.2500000000000000    0.2500000000000000 Tl
   0.7500000000000000    0.7500000000000000    0.7500000000000000 Tl
   0.0000000000000000    0.0000000000000000    0.0000000000000000 Ga
   0.2263309999999990    0.7736689999999991    0.7736689999999991 F
   0.2263309999999990    0.7736689999999991    0.2263309999999990 F
   0.7736689999999991    0.2263309999999990    0.7736689999999991 F
   0.7736689999999991    0.7736689999999991    0.2263309999999990 F
   0.2263309999999990    0.2263309999999990    0.7736689999999991 F
   0.7736689999999991    0.2263309999999990    0.2263309999999990 F
