Cs2 Li1 Tl1 F6
1.0
   0.0000000000000000    4.4658270000000000    4.4658270000000000
   4.4658270000000000    0.0000000000000000    4.4658270000000000
   4.4658270000000000    4.4658270000000000    0.0000000000000000
Cs Li Tl F
2 1 1 6
direct
   0.7500000000000000    0.7500000000000000    0.7500000000000000 Cs
   0.2500000000000000    0.2500000000000000    0.2500000000000000 Cs
   0.5000000000000000    0.5000000000000000    0.5000000000000000 Li
   0.0000000000000000    0.0000000000000000    0.0000000000000000 Tl
   0.7510030000000000    0.2489970000000000    0.2489970000000000 F
   0.2489970000000000    0.2489970000000000    0.7510030000000000 F
   0.2489970000000000    0.7510030000000000    0.7510030000000000 F
   0.2489970000000000    0.7510030000000000    0.2489970000000000 F
   0.7510030000000000    0.2489970000000000    0.7510030000000000 F
   0.7510030000000000    0.7510030000000000    0.2489970000000000 F
