Ba1 La1 Ta1 Mn1 O6
1.0
   0.0000000000000000    4.1266369999999997    4.1266369999999997
   4.1266369999999997    0.0000000000000000    4.1266369999999997
   4.1266369999999997    4.1266369999999997    0.0000000000000000
Ba La Ta Mn O
1 1 1 1 6
direct
   0.2500000000000000    0.2500000000000000    0.2500000000000000 Ba
   0.7500000000000000    0.7500000000000000    0.7500000000000000 La
   0.0000000000000000    0.0000000000000000    0.0000000000000000 Ta
   0.5000000000000000    0.5000000000000000    0.5000000000000000 Mn
   0.7587830000000000    0.2412170000000000    0.7587830000000000 O
   0.7587830000000000    0.2412170000000000    0.2412170000000000 O
   0.7587830000000000    0.7587830000000000    0.2412170000000000 O
   0.2412170000000000    0.2412170000000000    0.7587830000000000 O
   0.2412170000000000    0.7587830000000000    0.7587830000000000 O
   0.2412170000000000    0.7587830000000000    0.2412170000000000 O
