Rb2 Na1 Sb1 F6
1.0
   0.0000000000000000    4.5318170000000002    4.5318170000000002
   4.5318170000000002    0.0000000000000000    4.5318170000000002
   4.5318170000000002    4.5318170000000002    0.0000000000000000
Rb Na Sb F
2 1 1 6
direct
   0.7500000000000000    0.7500000000000000    0.7500000000000000 Rb
   0.2500000000000000    0.2500000000000000    0.2500000000000000 Rb
   0.5000000000000000    0.5000000000000000    0.5000000000000000 Na
   0.0000000000000000    0.0000000000000000    0.0000000000000000 Sb
   0.7562979999999990    0.2437020000000000    0.2437020000000000 F
   0.2437020000000000    0.2437020000000000    0.7562979999999990 F
   0.2437020000000000    0.7562979999999990    0.7562979999999990 F
   0.2437020000000000    0.7562979999999990    0.2437020000000000 F
   0.7562979999999990    0.2437020000000000    0.7562979999999990 F
   0.7562979999999990    0.7562979999999990    0.2437020000000000 F
