K2 Li1 Ir1 F6
1.0
   0.0000000000000000    4.1174879999999998    4.1174879999999998
   4.1174879999999998    0.0000000000000000    4.1174879999999998
   4.1174879999999998    4.1174879999999998    0.0000000000000000
K Li Ir F
2 1 1 6
direct
   0.2500000000000000    0.2500000000000000    0.2500000000000000 K
   0.7500000000000000    0.7500000000000000    0.7500000000000000 K
   0.5000000000000000    0.5000000000000000    0.5000000000000000 Li
   0.0000000000000000    0.0000000000000000    0.0000000000000000 Ir
   0.2475969999999990    0.2475969999999990    0.7524029999999990 F
   0.2475969999999990    0.7524029999999990    0.7524029999999990 F
   0.7524029999999990    0.7524029999999990    0.2475969999999990 F
   0.2475969999999990    0.7524029999999990    0.2475969999999990 F
   0.7524029999999990    0.2475969999999990    0.7524029999999990 F
   0.7524029999999990    0.2475969999999990    0.2475969999999990 F
