Na4 Ta4 O12
1.0
   5.4538862300000002   -0.0000000000000000    0.0000000000000000
  -0.0000000000000000    5.5199992800000004    0.0000000000000000
   0.0000000000000000    0.0000000000000000    7.7747069399999997
Na Ta O
4 4 12
direct
   0.9950829800000001    0.9751663200000000    0.7500000000000000 Na
   0.0049170200000000    0.0248336800000000    0.2500000000000000 Na
   0.5049170200000000    0.4751663200000000    0.7500000000000000 Na
   0.4950829800000000    0.5248336800000000    0.2500000000000000 Na
   0.5000000000000000    0.0000000000000000    0.5000000000000000 Ta
   0.5000000000000000    0.0000000000000000    0.0000000000000000 Ta
   0.0000000000000000    0.5000000000000000    0.5000000000000000 Ta
   0.0000000000000000    0.5000000000000000    0.0000000000000000 Ta
   0.2097181400000000    0.7891452500000000    0.4639097500000000 O
   0.7902818600000000    0.2108547500000000    0.9639097500000000 O
   0.2902818600000000    0.2891452500000000    0.4639097500000000 O
   0.7097181400000000    0.7108547500000000    0.9639097500000000 O
   0.2097181400000000    0.7891452500000000    0.0360902500000000 O
   0.7902818600000000    0.2108547500000000    0.5360902500000000 O
   0.2902818600000000    0.2891452500000000    0.0360902500000000 O
   0.7097181400000000    0.7108547500000000    0.5360902500000000 O
   0.0706355200000000    0.5147051000000000    0.7500000000000000 O
   0.9293644800000000    0.4852949000000000    0.2500000000000000 O
   0.4293644800000000    0.0147050999999990    0.7500000000000000 O
   0.5706355200000001    0.9852949000000000    0.2500000000000000 O
