Sr2 Cr1 Sb1 O6
1.0
   0.0001390000000000    5.6415439999999997    0.0000070000000000
  -2.8462830000000001    2.8207100000000001    3.9773930000000002
   2.8476749999999988    2.8208440000000001    3.9787759999999999
Sr Cr Sb O
2 1 1 6
direct
   0.2502979999999990    0.7457220000000000    0.7536560000000000 Sr
   0.7496470000000000    0.2543000000000000    0.2463580000000000 Sr
   0.9999309999999991    0.5001500000000000    0.4999679999999990 Cr
   0.5000780000000000    0.9999000000000000    0.9998830000000000 Sb
   0.7481590000000000    0.8106789999999990    0.6930580000000000 O
   0.2519610000000000    0.1892009999999990    0.3068980000000000 O
   0.2830540000000000    0.7206850000000000    0.2161120000000000 O
   0.7801589999999990    0.7207030000000000    0.2160929999999990 O
   0.7168600000000001    0.2793300000000000    0.7839940000000000 O
   0.2198530000000000    0.2793310000000000    0.7839800000000000 O
