Na4 Mg4 H12
1.0
   5.3182556800000000    0.0000000000000000    0.0000000000000000
  -0.0000000000000000    5.4282105400000003    0.0000000000000000
   0.0000000000000000    0.0000000000000000    7.6102289399999998
Na Mg H
4 4 12
direct
   0.0099594600000000    0.0327886200000000    0.2500000000000000 Na
   0.4900405400000000    0.5327886200000000    0.2500000000000000 Na
   0.5099594600000000    0.4672113800000000    0.7500000000000000 Na
   0.9900405400000000    0.9672113800000001    0.7500000000000000 Na
  -0.0000000000000000    0.5000000000000000    0.5000000000000000 Mg
  -0.0000000000000000    0.5000000000000000   -0.0000000000000000 Mg
   0.5000000000000000    0.0000000000000000   -0.0000000000000000 Mg
   0.5000000000000000    0.0000000000000000    0.5000000000000000 Mg
   0.2108412900000000    0.7874585800000000    0.0446765100000000 H
   0.2891587100000000    0.2874585800000000    0.4553234900000000 H
   0.7891587100000000    0.2125414200000000    0.9553234900000001 H
   0.5838402400000000    0.9746014400000000    0.2500000000000000 H
   0.9161597600000000    0.4746014400000000    0.2500000000000000 H
   0.2891587100000000    0.2874585800000000    0.0446765100000000 H
   0.7108412900000001    0.7125414200000000    0.5446765100000001 H
   0.7108412900000001    0.7125414200000000    0.9553234900000001 H
   0.4161597600000000    0.0253985600000000    0.7500000000000000 H
   0.7891587100000000    0.2125414200000000    0.5446765100000001 H
   0.0838402400000000    0.5253985600000000    0.7500000000000000 H
   0.2108412900000000    0.7874585800000000    0.4553234900000000 H
