K2 Na1 Al1 F6
1.0
  -4.1267670000000001   -4.1267670000000001    0.0000000000000000
  -4.1267670000000001    0.0000000000000000   -4.1267670000000001
   0.0000000000000000   -4.1267670000000001   -4.1267670000000001
K Na Al F
2 1 1 6
direct
   0.2500000000000000    0.2500000000000000    0.2500000000000000 K
   0.7500000000000000    0.7500000000000000    0.7500000000000000 K
   0.5000000000000000    0.5000000000000000    0.5000000000000000 Na
   0.0000000000000000    0.0000000000000000    0.0000000000000000 Al
   0.7773089999999990    0.7773089999999990    0.2226910000000000 F
   0.2226910000000000    0.7773089999999990    0.7773089999999990 F
   0.2226910000000000    0.2226910000000000    0.7773089999999990 F
   0.7773089999999990    0.2226910000000000    0.7773089999999990 F
   0.2226910000000000    0.7773089999999990    0.2226910000000000 F
   0.7773089999999990    0.2226910000000000    0.2226910000000000 F
