ADDGRID = True
ALGO = Fast
EDIFF = 1e-06
EFIELD_PEAD = 5.956728175483644e-07 -7.043344660602343e-07 -0.0009999995745433366
ENCUT = 520.0
IBRION = -1
ISMEAR = 0
ISPIN = 2
ISYM = 0
LASPH = True
LCALCEPS = False
LCALCPOL = True
LCHARG = False
LMAXMIX = 6
LORBIT = 11
LREAL = False
LWAVE = False
MAGMOM = 5*-0.0
NELM = 100
NSW = 0
PREC = Accurate
SIGMA = 0.05
SKIP_EDOTP = True
SYMPREC = 1e-08
