K6 Li3 Al3 F18
1.0
   5.5333407100000001   -0.0000000100000000    0.0000000000000000
  -2.7666698800000002    4.7920135999999998    0.0000000000000000
   0.0000000000000000    0.0000000000000000   13.5471452699999997
K Li Al F
6 3 3 18
direct
  -0.0000000000000000   -0.0000000000000000    0.7449442200000000 K
   0.3333330000000000    0.6666670000000000    0.0812512600000000 K
  -0.0000000000000000   -0.0000000000000000    0.4385311700000000 K
   0.3333330000000000    0.6666670000000000    0.5854800100000001 K
   0.6666670000000000    0.3333330000000000    0.9216905500000000 K
   0.6666670000000000    0.3333330000000000    0.2281523900000000 K
  -0.0000000000000000   -0.0000000000000000    0.1910730500000000 Li
   0.6666670000000000    0.3333330000000000    0.4755968900000000 Li
   0.3333330000000000    0.6666670000000000    0.8332600500000000 Li
   0.6666670000000000    0.3333330000000000    0.6720259000000000 Al
  -0.0000000000000000   -0.0000000000000000    0.9946480600000001 Al
   0.3333330000000000    0.6666670000000000    0.3333276200000000 Al
   0.6434790000000000    0.8217409999999991    0.2568472300000000 F
   0.8163487200000000    0.1836512800000000    0.5903070700000000 F
   0.8503063999999990    0.1496935999999990    0.0763583900000000 F
   0.0231740000000000    0.5115875000000000    0.4098134900000000 F
   0.5111266500000000    0.0222543100000000    0.7471901600000000 F
   0.4884124999999990    0.9768260000000000    0.4098134900000000 F
   0.1555593500000000    0.8444406500000000    0.9194922800000001 F
   0.5111266500000000    0.4888733500000000    0.7471901600000000 F
   0.1782590000000000    0.3565210000000000    0.2568472300000000 F
   0.8163487200000000    0.6326974500000000    0.5903070700000000 F
   0.8503063999999990    0.7006138100000000    0.0763583900000000 F
   0.3673025500000000    0.1836512800000000    0.5903070700000000 F
   0.2993861900000000    0.1496935999999990    0.0763583900000000 F
   0.1782590000000000    0.8217409999999991    0.2568472300000000 F
   0.6888823100000000    0.8444406500000000    0.9194922800000001 F
   0.9777456900000000    0.4888733500000000    0.7471901600000000 F
   0.1555593500000000    0.3111176900000000    0.9194922800000001 F
   0.4884124999999990    0.5115875000000000    0.4098134900000000 F
