Rb2 Na1 Sc1 F6
1.0
   0.0000000000000000    4.3745320000000003    4.3745320000000003
   4.3745320000000003    0.0000000000000000    4.3745320000000003
   4.3745320000000003    4.3745320000000003    0.0000000000000000
Rb Na Sc F
2 1 1 6
direct
   0.7500000000000000    0.7500000000000000    0.7500000000000000 Rb
   0.2500000000000000    0.2500000000000000    0.2500000000000000 Rb
   0.5000000000000000    0.5000000000000000    0.5000000000000000 Na
   0.0000000000000000    0.0000000000000000    0.0000000000000000 Sc
   0.7667689999999990    0.2332310000000000    0.2332310000000000 F
   0.2332310000000000    0.2332310000000000    0.7667689999999990 F
   0.2332310000000000    0.7667689999999990    0.7667689999999990 F
   0.2332310000000000    0.7667689999999990    0.2332310000000000 F
   0.7667689999999990    0.2332310000000000    0.7667689999999990 F
   0.7667689999999990    0.7667689999999990    0.2332310000000000 F
