La8 Al7 Ga1 O24
1.0
   7.6521480000000004    0.0000000000000000    0.0000000000000000
   0.0000000000000000    7.6521480000000004    0.0000000000000000
   0.0000000000000000    0.0000000000000000    7.6521480000000004
La Al Ga O
8 7 1 24
direct
   0.2502500000000000    0.2502500000000000    0.2502500000000000 La
   0.2502500000000000    0.2502500000000000    0.7497500000000000 La
   0.2502500000000000    0.7497500000000000    0.2502500000000000 La
   0.2502500000000000    0.7497500000000000    0.7497500000000000 La
   0.7497500000000000    0.2502500000000000    0.2502500000000000 La
   0.7497500000000000    0.2502500000000000    0.7497500000000000 La
   0.7497500000000000    0.7497500000000000    0.2502500000000000 La
   0.7497500000000000    0.7497500000000000    0.7497500000000000 La
   0.0000000000000000    0.0000000000000000    0.5000000000000000 Al
   0.0000000000000000    0.5000000000000000    0.0000000000000000 Al
   0.0000000000000000    0.5000000000000000    0.5000000000000000 Al
   0.5000000000000000    0.0000000000000000    0.0000000000000000 Al
   0.5000000000000000    0.0000000000000000    0.5000000000000000 Al
   0.5000000000000000    0.5000000000000000    0.0000000000000000 Al
   0.5000000000000000    0.5000000000000000    0.5000000000000000 Al
   0.0000000000000000    0.0000000000000000    0.0000000000000000 Ga
   0.0000000000000000    0.2556879999999990    0.0000000000000000 O
   0.0000000000000000    0.2503680000000000    0.5000000000000000 O
   0.0000000000000000    0.7443120000000000    0.0000000000000000 O
   0.0000000000000000    0.7496320000000000    0.5000000000000000 O
   0.5000000000000000    0.2503680000000000    0.0000000000000000 O
   0.5000000000000000    0.2500990000000000    0.5000000000000000 O
   0.5000000000000000    0.7496320000000000    0.0000000000000000 O
   0.5000000000000000    0.7499009999999990    0.5000000000000000 O
   0.0000000000000000    0.0000000000000000    0.2556879999999990 O
   0.0000000000000000    0.0000000000000000    0.7443120000000000 O
   0.0000000000000000    0.5000000000000000    0.2503680000000000 O
   0.0000000000000000    0.5000000000000000    0.7496320000000000 O
   0.5000000000000000    0.0000000000000000    0.2503680000000000 O
   0.5000000000000000    0.0000000000000000    0.7496320000000000 O
   0.5000000000000000    0.5000000000000000    0.2500990000000000 O
   0.5000000000000000    0.5000000000000000    0.7499009999999990 O
   0.2556879999999990    0.0000000000000000    0.0000000000000000 O
   0.2503680000000000    0.0000000000000000    0.5000000000000000 O
   0.2503680000000000    0.5000000000000000    0.0000000000000000 O
   0.2500990000000000    0.5000000000000000    0.5000000000000000 O
   0.7443120000000000    0.0000000000000000    0.0000000000000000 O
   0.7496320000000000    0.0000000000000000    0.5000000000000000 O
   0.7496320000000000    0.5000000000000000    0.0000000000000000 O
   0.7499009999999990    0.5000000000000000    0.5000000000000000 O
