K4 Li2 Al2 H12
1.0
   5.3097936499999996   -0.0001504100000000    7.9579825399999997
   2.4110611199999998    4.7308247600000000    7.9579825499999997
  -0.0002449000000000   -0.0001504100000000    9.5667874099999999
K Li Al H
4 2 2 12
direct
   0.1270956600000000    0.1270956600000000    0.1270956600000000 K
   0.8729043400000001    0.8729043400000001    0.8729043400000001 K
   0.2865161600000000    0.2865161600000000    0.2865161600000000 K
   0.7134838400000000    0.7134838400000000    0.7134838400000000 K
   0.4078770800000000    0.4078770800000000    0.4078770800000000 Li
   0.5921229200000000    0.5921229200000000    0.5921229200000000 Li
  -0.0000000000000000    0.0000000000000000   -0.0000000000000000 Al
   0.5000000000000000    0.5000000000000000    0.5000000000000000 Al
   0.1884106100000000    0.1884106100000000    0.7350198600000000 H
   0.1884106100000000    0.7350198600000000    0.1884106100000000 H
   0.7350198600000000    0.1884106100000000    0.1884106100000000 H
   0.2649801400000000    0.8115893900000000    0.8115893900000000 H
   0.8115893900000000    0.8115893900000000    0.2649801400000000 H
   0.8115893900000000    0.2649801400000000    0.8115893900000000 H
   0.3950566800000000    0.3950566800000000    0.8278697200000000 H
   0.3950566800000000    0.8278697200000000    0.3950566800000000 H
   0.6049433200000001    0.1721302800000000    0.6049433200000001 H
   0.6049433200000001    0.6049433200000001    0.1721302800000000 H
   0.1721302800000000    0.6049433200000001    0.6049433200000001 H
   0.8278697200000000    0.3950566800000000    0.3950566800000000 H
