Rb1 Ta1 O3
1.0
   2.8953609999999999   -2.8909669999999998    0.0000000000000000
   2.8953609999999999    2.8909669999999998    0.0000000000000000
   0.0087820000000000    0.0000000000000000    4.0915429999999997
Rb Ta O
1 1 3
direct
   0.9771890000000000    0.9771890000000000    0.9771890000000000 Rb
   0.4884150000000000    0.4884150000000000    0.4884150000000000 Ta
   0.4682179999999990    0.9619810000000000    0.4682179999999990 O
   0.4682179999999990    0.4682179999999990    0.9619810000000000 O
   0.9619810000000000    0.4682179999999990    0.4682179999999990 O
