Y4 Sc4 S12
1.0
   6.3868808599999998    0.0000000000000000    0.0000000000000000
   0.0000000000000000    7.0093501700000003    0.0000000000000000
   0.0000000000000000    0.0000000000000000    9.5290546799999998
Y Sc S
4 4 12
direct
   0.4595106200000000    0.1003984000000000    0.2500000000000000 Y
   0.5404893800000000    0.8996016000000000    0.7500000000000000 Y
   0.0404893800000000    0.6003984000000000    0.2500000000000000 Y
   0.9595106200000000    0.3996016000000000    0.7500000000000000 Y
  -0.0000000000000000   -0.0000000000000000    0.5000000000000000 Sc
  -0.0000000000000000   -0.0000000000000000    0.0000000000000000 Sc
   0.5000000000000000    0.5000000000000000    0.5000000000000000 Sc
   0.5000000000000000    0.5000000000000000    0.0000000000000000 Sc
   0.1443307800000000    0.0483984200000000    0.7500000000000000 S
   0.8556692200000000    0.9516015800000001    0.2500000000000000 S
   0.3556692200000000    0.5483984200000001    0.7500000000000000 S
   0.6443307800000000    0.4516015800000000    0.2500000000000000 S
   0.1760003900000000    0.3157763800000000    0.4290520000000000 S
   0.8239996100000000    0.6842236200000000    0.9290520000000000 S
   0.3239996100000000    0.8157763800000000    0.4290520000000000 S
   0.6760003900000000    0.1842236200000000    0.9290520000000000 S
   0.6760003900000000    0.1842236200000000    0.5709480000000000 S
   0.3239996100000000    0.8157763800000000    0.0709480000000000 S
   0.8239996100000000    0.6842236200000000    0.5709480000000000 S
   0.1760003900000000    0.3157763800000000    0.0709480000000000 S
