Sr2 Ti2 O6
1.0
   4.7827101699999996    0.0000000000000000   -2.7607623500000003
  -1.5936169599999990    4.5094012899999996   -2.7607623500000003
   0.0067837700000000    0.0095921300000000    5.5348860100000001
Sr Ti O
2 2 6
direct
   0.7500000000000000    0.2500000000000000    0.5000000000000000 Sr
   0.2500000000000000    0.7500000000000000    0.5000000000000000 Sr
   0.5000000000000000    0.5000000000000000   -0.0000000000000000 Ti
  -0.0000000000000000    0.0000000000000000   -0.0000000000000000 Ti
   0.7709574500000000    0.2709574500000000   -0.0000000000000000 O
   0.7290425500000001    0.7709574500000000    0.0000000000000000 O
   0.2709574500000000    0.2290425500000000   -0.0000000000000000 O
   0.2290425500000000    0.7290425500000001    0.0000000000000000 O
   0.2500000000000000    0.2500000000000000    0.5000000000000000 O
   0.7500000000000000    0.7500000000000000    0.5000000000000000 O
