Cs2 Pb2 F6
1.0
   5.8862930100000002   -0.0215358400000000    3.1257082000000000
   1.8696902300000000    5.5815024800000002    3.1257081900000001
  -0.0300409100000000   -0.0215358400000000    6.6646535900000003
Cs Pb F
2 2 6
direct
   0.2419586700000000    0.2419586700000000    0.2419586700000000 Cs
   0.7419586700000000    0.7419586700000000    0.7419586700000000 Cs
   0.9916368600000001    0.9916368600000001    0.9916368600000001 Pb
   0.4916368600000000    0.4916368600000000    0.4916368600000000 Pb
   0.2899064400000000    0.7858069200000000    0.1758921100000000 F
   0.7858069200000000    0.1758921100000000    0.2899064400000000 F
   0.1758921100000000    0.2899064400000000    0.7858069200000000 F
   0.6758921100000000    0.2858069200000000    0.7899064400000000 F
   0.7899064400000000    0.6758921100000000    0.2858069200000000 F
   0.2858069200000000    0.7899064400000000    0.6758921100000000 F
