Ba1 La1 Zn1 Ru1 O6
1.0
   5.6947140000000003    0.0000000000000000    0.0000000000000000
  -2.8370280000000001    4.9638410000000004    0.0000000000000000
  -2.8041290000000001   -1.6522630000000000    4.7047540000000003
Ba La Zn Ru O
1 1 1 1 6
direct
   0.4994630000000000    0.7504310000000000    0.2496739999999990 Ba
   0.4827150000000000    0.2498880000000000    0.7352500000000001 La
   0.9928990000000000    0.0011589999999990    0.9986240000000000 Zn
   0.9998929999999990    0.5004720000000000    0.5014280000000000 Ru
   0.0506659999999990    0.8055559999999991    0.3223370000000000 O
   0.4858869999999990    0.6794730000000000    0.7212809999999999 O
   0.9100650000000000    0.2610409999999990    0.1675720000000000 O
   0.0475509999999990    0.7409709999999990    0.7884519999999990 O
   0.5179079999999990    0.2868560000000000    0.3055460000000000 O
   0.0129530000000000    0.2241530000000000    0.7098369999999991 O
