Rb2 Li1 Y1 F6
1.0
   0.0000000000000000    4.3566260000000003    4.3566260000000003
   4.3566260000000003    0.0000000000000000    4.3566260000000003
   4.3566260000000003    4.3566260000000003    0.0000000000000000
Rb Li Y F
2 1 1 6
direct
   0.7500000000000000    0.7500000000000000    0.7500000000000000 Rb
   0.2500000000000000    0.2500000000000000    0.2500000000000000 Rb
   0.5000000000000000    0.5000000000000000    0.5000000000000000 Li
   0.0000000000000000    0.0000000000000000    0.0000000000000000 Y
   0.7481900000000000    0.2518100000000000    0.2518100000000000 F
   0.2518100000000000    0.2518100000000000    0.7481900000000000 F
   0.2518100000000000    0.7481900000000000    0.7481900000000000 F
   0.2518100000000000    0.7481900000000000    0.2518100000000000 F
   0.7481900000000000    0.2518100000000000    0.7481900000000000 F
   0.7481900000000000    0.7481900000000000    0.2518100000000000 F
