Cs2 Na1 Y1 F6
1.0
  -4.6007040000000003   -4.6007040000000003    0.0000000000000000
  -4.6007040000000003    0.0000000000000000   -4.6007040000000003
   0.0000000000000000   -4.6007040000000003   -4.6007040000000003
Cs Na Y F
2 1 1 6
direct
   0.7500000000000000    0.7500000000000000    0.7500000000000000 Cs
   0.2500000000000000    0.2500000000000000    0.2500000000000000 Cs
   0.5000000000000000    0.5000000000000000    0.5000000000000000 Na
   0.0000000000000000    0.0000000000000000    0.0000000000000000 Y
   0.7607189999999990    0.2392810000000000    0.2392810000000000 F
   0.2392810000000000    0.7607189999999990    0.2392810000000000 F
   0.7607189999999990    0.2392810000000000    0.7607189999999990 F
   0.7607189999999990    0.7607189999999990    0.2392810000000000 F
   0.2392810000000000    0.7607189999999990    0.7607189999999990 F
   0.2392810000000000    0.2392810000000000    0.7607189999999990 F
