Sr4 Pb4 O12
1.0
   5.8857247600000004   -0.0000000000000000    0.0000000000000000
   0.0000000000000000    6.0272620600000000    0.0000000000000000
   0.0000000000000000    0.0000000000000000    8.3694263000000007
Sr Pb O
4 4 12
direct
   0.4870974900000000    0.0494971800000000    0.7500000000000000 Sr
   0.9870974900000000    0.4505028200000000    0.2500000000000000 Sr
   0.5129025100000000    0.9505028200000000    0.2500000000000000 Sr
   0.0129025100000000    0.5494971800000000    0.7500000000000000 Sr
  -0.0000000000000000    0.0000000000000000    0.5000000000000000 Pb
   0.5000000000000000    0.5000000000000000   -0.0000000000000000 Pb
   0.5000000000000000    0.5000000000000000    0.5000000000000000 Pb
  -0.0000000000000000    0.0000000000000000   -0.0000000000000000 Pb
   0.5971770800000000    0.4639250000000000    0.7500000000000000 O
   0.2984656000000000    0.7956782800000001    0.9486688500000000 O
   0.0971770800000000    0.0360749999999990    0.2500000000000000 O
   0.2015344000000000    0.2956782800000000    0.9486688500000000 O
   0.2984656000000000    0.7956782800000001    0.5513311500000000 O
   0.9028229200000000    0.9639249999999990    0.7500000000000000 O
   0.7984656000000000    0.7043217200000000    0.0513311500000000 O
   0.7015344000000000    0.2043217200000000    0.0513311500000000 O
   0.4028229200000000    0.5360750000000000    0.2500000000000000 O
   0.7984656000000000    0.7043217200000000    0.4486688500000000 O
   0.7015344000000000    0.2043217200000000    0.4486688500000000 O
   0.2015344000000000    0.2956782800000000    0.5513311500000000 O
