Ca2 Cr1 W1 O6
1.0
   5.5097500000000004    0.0000000000000000    0.0000000000000000
  -2.6968679999999998    4.8110840000000001    0.0000000000000000
  -2.6740529999999998   -1.6500469999999989    4.5547579999999996
Ca Cr W O
2 1 1 6
direct
   0.4775530000000000    0.2301659999999990    0.7418870000000000 Ca
   0.5133390000000000    0.7671570000000000    0.2414270000000000 Ca
   0.9845790000000000    0.5030080000000000    0.4839859999999990 Cr
   0.9846739999999991    0.0031130000000000    0.9839660000000000 W
   0.0650060000000000    0.3438569999999990    0.2142150000000000 O
   0.8850490000000000    0.6624860000000000    0.7359289999999991 O
   0.0115979999999990    0.8192149999999990    0.3008810000000000 O
   0.4867539999999990    0.2206449999999990    0.1729230000000000 O
   0.4797349999999990    0.7886869999999990    0.7979050000000000 O
   0.9589090000000000    0.1902269999999990    0.6673319999999990 O
