Cs4 Pb4 Br12
1.0
   8.1010784099999995   -0.0000000000000000    0.0000000000000000
  -0.0000000000000000    8.4538470399999994    0.0000000000000000
   0.0000000000000000    0.0000000000000000   11.8789112299999999
Cs Pb Br
4 4 12
direct
   0.5194521200000000    0.4398365300000000    0.2500000000000000 Cs
   0.0194521200000000    0.0601634700000000    0.7500000000000000 Cs
   0.9805478800000000    0.9398365300000000    0.2500000000000000 Cs
   0.4805478800000000    0.5601634700000000    0.7500000000000000 Cs
   0.5000000000000000   -0.0000000000000000    0.5000000000000000 Pb
   0.0000000000000000    0.5000000000000000    0.0000000000000000 Pb
   0.0000000000000000    0.5000000000000000    0.5000000000000000 Pb
   0.5000000000000000   -0.0000000000000000    0.0000000000000000 Pb
   0.5596654800000000    0.9937405500000001    0.7500000000000000 Br
   0.0596654800000000    0.5062594500000001    0.2500000000000000 Br
   0.8027918900000001    0.2010221700000000    0.0317012800000000 Br
   0.1972081100000000    0.7989778300000000    0.9682987200000001 Br
   0.3027918900000000    0.2989778300000000    0.9682987200000001 Br
   0.6972081100000000    0.7010221700000000    0.0317012800000000 Br
   0.3027918900000000    0.2989778300000000    0.5317012800000001 Br
   0.6972081100000000    0.7010221700000000    0.4682987200000000 Br
   0.1972081100000000    0.7989778300000000    0.5317012800000001 Br
   0.8027918900000001    0.2010221700000000    0.4682987200000000 Br
   0.9403345200000001    0.4937405500000000    0.7500000000000000 Br
   0.4403345200000000    0.0062594500000000    0.2500000000000000 Br
