K2 Li1 Cr1 F6
1.0
   0.0000000000000000    4.0582140000000004    4.0582140000000004
   4.0582140000000004    0.0000000000000000    4.0582140000000004
   4.0582140000000004    4.0582140000000004    0.0000000000000000
K Li Cr F
2 1 1 6
direct
   0.2500000000000000    0.2500000000000000    0.2500000000000000 K
   0.7500000000000000    0.7500000000000000    0.7500000000000000 K
   0.5000000000000000    0.5000000000000000    0.5000000000000000 Li
   0.0000000000000000    0.0000000000000000    0.0000000000000000 Cr
   0.7590910000000000    0.2409089999999990    0.2409089999999990 F
   0.2409089999999990    0.7590910000000000    0.7590910000000000 F
   0.2409089999999990    0.7590910000000000    0.2409089999999990 F
   0.7590910000000000    0.2409089999999990    0.7590910000000000 F
   0.2409089999999990    0.2409089999999990    0.7590910000000000 F
   0.7590910000000000    0.7590910000000000    0.2409089999999990 F
