Sr4 Sn4 O12
1.0
   5.7382020599999999    0.0000000000000000    0.0000000000000000
  -0.0000000000000000    5.7264999699999999    0.0000000000000000
   0.0000000000000000    0.0000000000000000    8.1016131300000005
Sr Sn O
4 4 12
direct
   0.4726956600000000    0.4940024600000000    0.7500000000000000 Sr
   0.9726956600000001    0.0059975400000000    0.7500000000000000 Sr
   0.0273033400000000    0.9940034600000001    0.2500000000000000 Sr
   0.5273033400000000    0.5059965400000001    0.2500000000000000 Sr
   0.5000010000000000    0.0000010000000000   -0.0000000000000000 Sn
  -0.0000000000000000    0.4999989999999990    0.5000000000000000 Sn
  -0.0000000000000000    0.4999989999999990   -0.0000000000000000 Sn
   0.5000000000000000    0.0000010000000000    0.5000000000000000 Sn
   0.7173301900000000    0.2829612800000000    0.5352165600000001 O
   0.2173301900000000    0.2170387200000000    0.9647834400000000 O
   0.7826698100000000    0.7829612800000000    0.4647844400000000 O
   0.2826698100000000    0.7170387200000000    0.0352155600000000 O
   0.2826698100000000    0.7170387200000000    0.4647844400000000 O
   0.7826698100000000    0.7829602800000001    0.0352155600000000 O
   0.2173301900000000    0.2170387200000000    0.5352165600000001 O
   0.7173301900000000    0.2829612800000000    0.9647834400000000 O
   0.5133913999999991    0.9335183200000000    0.7500000000000000 O
   0.0133914000000000    0.5664816800000000    0.7500000000000000 O
   0.9866085999999999    0.4335183200000000    0.2500000000000000 O
   0.4866086000000000    0.0664816800000000    0.2500000000000000 O
