Cs2 Sr2 Cl6
1.0
   6.9229859700000000   -0.0133737100000000    3.8598281600000002
   2.2610493400000000    6.5433600199999997    3.8598281600000002
  -0.0188083700000000   -0.0133737100000000    7.9262635100000001
Cs Sr Cl
2 2 6
direct
   0.2603123200000000    0.2603123200000000    0.2603123200000000 Cs
   0.7603123200000000    0.7603123200000000    0.7603123200000000 Cs
   0.0056916800000000    0.0056916800000000    0.0056916800000000 Sr
   0.5056916800000000    0.5056916800000000    0.5056916800000000 Sr
   0.2518004500000000    0.8130222100000000    0.6976733300000000 Cl
   0.8130222100000000    0.6976733300000000    0.2518004500000000 Cl
   0.6976733300000000    0.2518004500000000    0.8130222100000000 Cl
   0.1976733300000000    0.3130222100000000    0.7518004500000001 Cl
   0.7518004500000001    0.1976733300000000    0.3130222100000000 Cl
   0.3130222100000000    0.7518004500000001    0.1976733300000000 Cl
