Cs2 Tl1 Rh1 F6
1.0
   0.0000000000000000    4.6996169999999999    4.6996169999999999
   4.6996169999999999    0.0000000000000000    4.6996169999999999
   4.6996169999999999    4.6996169999999999    0.0000000000000000
Cs Tl Rh F
2 1 1 6
direct
   0.7500000000000000    0.7500000000000000    0.7500000000000000 Cs
   0.2500000000000000    0.2500000000000000    0.2500000000000000 Cs
   0.5000000000000000    0.5000000000000000    0.5000000000000000 Tl
   0.0000000000000000    0.0000000000000000    0.0000000000000000 Rh
   0.7840200000000001    0.2159800000000000    0.2159800000000000 F
   0.2159800000000000    0.2159800000000000    0.7840200000000001 F
   0.2159800000000000    0.7840200000000001    0.7840200000000001 F
   0.2159800000000000    0.7840200000000001    0.2159800000000000 F
   0.7840200000000001    0.2159800000000000    0.7840200000000001 F
   0.7840200000000001    0.7840200000000001    0.2159800000000000 F
