K2 Li1 Cu1 F6
1.0
   0.0000000000000000    4.0498459999999996    4.0498459999999996
   4.0498459999999996    0.0000000000000000    4.0498459999999996
   4.0498459999999996    4.0498459999999996    0.0000000000000000
K Li Cu F
2 1 1 6
direct
   0.2500000000000000    0.2500000000000000    0.2500000000000000 K
   0.7500000000000000    0.7500000000000000    0.7500000000000000 K
   0.5000000000000000    0.5000000000000000    0.5000000000000000 Li
   0.0000000000000000    0.0000000000000000    0.0000000000000000 Cu
   0.7604930000000000    0.2395070000000000    0.2395070000000000 F
   0.2395070000000000    0.7604930000000000    0.7604930000000000 F
   0.2395070000000000    0.7604930000000000    0.2395070000000000 F
   0.7604930000000000    0.2395070000000000    0.7604930000000000 F
   0.2395070000000000    0.2395070000000000    0.7604930000000000 F
   0.7604930000000000    0.7604930000000000    0.2395070000000000 F
