La4 Sc4 O12
1.0
   5.6850609099999998    0.0000000000000000    0.0000000000000000
   0.0000000000000000    5.8035307700000001    0.0000000000000000
   0.0000000000000000    0.0000000000000000    8.1022583099999999
La Sc O
4 4 12
direct
   0.0114613500000000    0.9553849100000000    0.2500000000000000 La
   0.5114613500000000    0.5446150900000000    0.7500000000000000 La
   0.4885386500000000    0.4553849100000000    0.2500000000000000 La
   0.9885386500000001    0.0446150900000000    0.7500000000000000 La
   0.0000000000000000    0.5000000000000000   -0.0000000000000000 Sc
   0.5000000000000000   -0.0000000000000000   -0.0000000000000000 Sc
   0.5000000000000000   -0.0000000000000000    0.5000000000000000 Sc
   0.0000000000000000    0.5000000000000000    0.5000000000000000 Sc
   0.8994801500000000    0.5337734100000000    0.2500000000000000 O
   0.3994801500000000    0.9662265900000000    0.7500000000000000 O
   0.6005198500000000    0.0337734100000000    0.2500000000000000 O
   0.1005198500000000    0.4662265900000000    0.7500000000000000 O
   0.7036204100000000    0.2962783300000000    0.9464756800000000 O
   0.2036204100000000    0.2037216700000000    0.0535243200000000 O
   0.7963795900000000    0.7962783300000000    0.5535243200000000 O
   0.2963795900000000    0.7037216700000000    0.4464756800000000 O
   0.2963795900000000    0.7037216700000000    0.0535243200000000 O
   0.7963795900000000    0.7962783300000000    0.9464756800000000 O
   0.2036204100000000    0.2037216700000000    0.4464756800000000 O
   0.7036204100000000    0.2962783300000000    0.5535243200000000 O
