Ca12 As4 N4
1.0
   6.7235053200000001   -0.0000000000000000    0.0000000000000000
  -0.0000000000000000    6.7162271599999999    0.0000000000000000
   0.0000000000000000    0.0000000000000000    9.5270610599999994
Ca As N
12 4 4
direct
   0.5076661000000000    0.9550976300000000    0.7500000000000000 Ca
   0.0076660999999990    0.5449023700000000    0.7500000000000000 Ca
   0.9923339000000000    0.4550986300000000    0.2500000000000000 Ca
   0.4923339000000000    0.0449023700000000    0.2500000000000000 Ca
   0.7168306100000000    0.2831199700000000    0.9766094700000000 Ca
   0.2168306100000000    0.2168800300000000    0.5233905300000000 Ca
   0.7831693900000000    0.7831199700000000    0.0233905300000000 Ca
   0.2831693900000000    0.7168800300000000    0.4766094700000000 Ca
   0.2831693900000000    0.7168800300000000    0.0233905300000000 Ca
   0.7831693900000000    0.7831199700000000    0.4766094700000000 Ca
   0.2168306100000000    0.2168800300000000    0.9766094700000000 Ca
   0.7168306100000000    0.2831199700000000    0.5233905300000000 Ca
   0.0203973300000000    0.9970786900000000    0.2500000000000000 As
   0.5203973300000000    0.5029213100000001    0.2500000000000000 As
   0.4796026700000000    0.4970786900000000    0.7500000000000000 As
   0.9796026700000000    0.0029213100000000    0.7500000000000000 As
   0.0000000000000000    0.5000000000000000    0.5000000000000000 N
   0.5000000000000000    0.0000000000000000    0.0000000000000000 N
   0.5000000000000000    0.0000000000000000    0.5000000000000000 N
   0.0000000000000000    0.5000000000000000    0.0000000000000000 N
