Na1 Tl2 Rh1 F6
1.0
  -4.3362080000000001   -4.3362080000000001    0.0000000000000000
  -4.3362080000000001    0.0000000000000000   -4.3362080000000001
   0.0000000000000000   -4.3362080000000001   -4.3362080000000001
Na Tl Rh F
1 2 1 6
direct
   0.5000000000000000    0.5000000000000000    0.5000000000000000 Na
   0.7500000000000000    0.7500000000000000    0.7500000000000000 Tl
   0.2500000000000000    0.2500000000000000    0.2500000000000000 Tl
   0.0000000000000000    0.0000000000000000    0.0000000000000000 Rh
   0.7668830000000000    0.2331170000000000    0.2331170000000000 F
   0.2331170000000000    0.7668830000000000    0.2331170000000000 F
   0.7668830000000000    0.2331170000000000    0.7668830000000000 F
   0.7668830000000000    0.7668830000000000    0.2331170000000000 F
   0.2331170000000000    0.7668830000000000    0.7668830000000000 F
   0.2331170000000000    0.2331170000000000    0.7668830000000000 F
