Ba4 Ni2 Mo2 O12
1.0
   5.0119270000000000   -0.0000120000000000    2.8936389999999999
   1.6706330000000000    4.7252869999999998    2.8936380000000002
  -1.6706349999999990   -4.7253210000000001    8.6809060000000002
Ba Ni Mo O
4 2 2 12
direct
   0.7500000000000000    0.1250000000000000    0.3750000000000000 Ba
   0.7500000000000000    0.6250000000000000    0.8750000000000000 Ba
   0.2499990000000000    0.3749989999999990    0.1250000000000000 Ba
   0.2499990000000000    0.8749990000000000    0.6250000000000000 Ba
   0.0000080000000000    0.0000000000000000    0.0000000000000000 Ni
   0.0000090000000000    0.5000000000000000    0.5000000000000000 Ni
   0.5000000000000000    0.7499990000000000    0.2499990000000000 Mo
   0.5000000000000000    0.2499990000000000    0.7500009999999990 Mo
   0.2605050000000000    0.6302530000000000    0.3697470000000000 O
   0.2605060000000000    0.1302539999999990    0.8697459999999990 O
   0.7394900000000001    0.6302540000000000    0.3697470000000000 O
   0.7394890000000000    0.1302549999999990    0.8697459999999990 O
   0.7394910000000000    0.3907620000000000    0.1302539999999990 O
   0.7394919999999990    0.8907600000000001    0.6302530000000000 O
   0.7394910000000000    0.8697450000000000    0.1302539999999990 O
   0.7394919999999990    0.3697459999999990    0.6302530000000000 O
   0.2605079999999990    0.8697440000000000    0.1302539999999990 O
   0.2605070000000000    0.3697450000000000    0.6302530000000000 O
   0.2605060000000000    0.1092400000000000    0.3697470000000000 O
   0.2605070000000000    0.6092379999999999    0.8697459999999990 O
