Nd4 Ga4 O12
1.0
   5.4712360000000002    0.0000000000000000    0.0000000000000000
   0.0000000000000000    5.6158669999999997    0.0000000000000000
   0.0000000000000000    0.0000000000000000    7.8016829999999997
Nd Ga O
4 4 12
direct
   0.9868979999999991    0.4481980000000000    0.7500000000000000 Nd
   0.0131019999999990    0.5518020000000000    0.2500000000000000 Nd
   0.5131019999999999    0.9481980000000000    0.7500000000000000 Nd
   0.4868980000000000    0.0518020000000000    0.2500000000000000 Nd
   0.5000000000000000    0.5000000000000000    0.5000000000000000 Ga
   0.5000000000000000    0.5000000000000000    0.0000000000000000 Ga
   0.0000000000000000    0.0000000000000000    0.5000000000000000 Ga
   0.0000000000000000    0.0000000000000000    0.0000000000000000 Ga
   0.7082189999999990    0.2070600000000000    0.9532430000000000 O
   0.2917810000000000    0.7929400000000001    0.4532430000000000 O
   0.7917810000000000    0.7070600000000000    0.9532430000000000 O
   0.2082190000000000    0.2929400000000000    0.4532430000000000 O
   0.7082189999999990    0.2070600000000000    0.5467569999999990 O
   0.2917810000000000    0.7929400000000001    0.0467570000000000 O
   0.7917810000000000    0.7070600000000000    0.5467569999999990 O
   0.2082190000000000    0.2929400000000000    0.0467570000000000 O
   0.9125800000000001    0.9772339999999990    0.2500000000000000 O
   0.0874200000000000    0.0227659999999990    0.7500000000000000 O
   0.5874200000000001    0.4772340000000000    0.2500000000000000 O
   0.4125800000000001    0.5227660000000000    0.7500000000000000 O
