Rb4 Ca4 Br12
1.0
   7.7812433800000003   -0.0000000000000000    0.0000000000000000
  -0.0000000000000000    8.1154826599999996    0.0000000000000000
   0.0000000000000000    0.0000000000000000   11.1564662600000002
Rb Ca Br
4 4 12
direct
   0.0207662500000000    0.4358070300000000    0.2500000000000000 Rb
   0.9792337500000000    0.5641929700000000    0.7500000000000000 Rb
   0.5207662500000000    0.0641929700000000    0.7500000000000000 Rb
   0.4792337500000000    0.9358070300000000    0.2500000000000000 Rb
   0.0000000000000000    0.0000000000000000    0.0000000000000000 Ca
   0.5000000000000000    0.5000000000000000    0.0000000000000000 Ca
   0.0000000000000000    0.0000000000000000    0.5000000000000000 Ca
   0.5000000000000000    0.5000000000000000    0.5000000000000000 Ca
   0.2988929400000000    0.2047081300000000    0.0445888700000000 Br
   0.7011070600000000    0.7952918700000000    0.9554111300000000 Br
   0.7988929400000000    0.2952918700000000    0.9554111300000000 Br
   0.7011070600000000    0.7952918700000000    0.5445888700000000 Br
   0.2011070600000000    0.7047081300000000    0.0445888700000000 Br
   0.2988929400000000    0.2047081300000000    0.4554111300000000 Br
   0.2011070600000000    0.7047081300000000    0.4554111300000000 Br
   0.7988929400000000    0.2952918700000000    0.5445888700000000 Br
   0.5872261100000000    0.5191319200000000    0.2500000000000000 Br
   0.4127738900000000    0.4808680800000000    0.7500000000000000 Br
   0.0872261100000000    0.9808680800000000    0.7500000000000000 Br
   0.9127738900000000    0.0191319200000000    0.2500000000000000 Br
