ADDGRID = True
ALGO = Fast
EDIFF = 1e-06
EFIELD_PEAD = -5.970359220804272e-07 -3.796196470526322e-07 -0.0029999999165728373
ENCUT = 520.0
IBRION = -1
ISMEAR = 0
ISPIN = 2
ISYM = 0
LASPH = True
LCALCEPS = False
LCALCPOL = True
LCHARG = False
LMAXMIX = 4
LORBIT = 11
LREAL = False
LWAVE = False
MAGMOM = 2*0.001 1*0.002 2*4.54 1*4.513 6*0.062 3*0.049
NELM = 100
NSW = 0
PREC = Accurate
SIGMA = 0.05
SKIP_EDOTP = True
SYMPREC = 1e-08
