Cs2 Na1 Tl1 F6
1.0
   0.0000000000000000    4.5907229999999997    4.5907229999999997
   4.5907229999999997    0.0000000000000000    4.5907229999999997
   4.5907229999999997    4.5907229999999997    0.0000000000000000
Cs Na Tl F
2 1 1 6
direct
   0.7500000000000000    0.7500000000000000    0.7500000000000000 Cs
   0.2500000000000000    0.2500000000000000    0.2500000000000000 Cs
   0.5000000000000000    0.5000000000000000    0.5000000000000000 Na
   0.0000000000000000    0.0000000000000000    0.0000000000000000 Tl
   0.7590530000000000    0.2409470000000000    0.2409460000000000 F
   0.2409470000000000    0.2409470000000000    0.7590530000000000 F
   0.2409460000000000    0.7590530000000000    0.7590530000000000 F
   0.2409470000000000    0.7590530000000000    0.2409470000000000 F
   0.7590530000000000    0.2409470000000000    0.7590530000000000 F
   0.7590530000000000    0.7590540000000000    0.2409460000000000 F
