Ba12 Si4 O4
1.0
   7.5765789100000003    0.0000000000000000    0.0000000000000000
   0.0000000000000000    7.6982159000000001    0.0000000000000000
   0.0000000000000000    0.0000000000000000   10.8087858299999997
Ba Si O
12 4 4
direct
   0.0761216000000000    0.4821875100000000    0.2500000000000000 Ba
   0.2100621100000000    0.2104074800000000    0.5398304300000000 Ba
   0.2100621100000000    0.2104074800000000    0.9601695700000000 Ba
   0.2899378900000000    0.7104074800000000    0.5398304300000000 Ba
   0.2899378900000000    0.7104074800000000    0.9601695700000000 Ba
   0.4238784000000000    0.9821875100000000    0.2500000000000000 Ba
   0.5761216000000000    0.0178124900000000    0.7500000000000000 Ba
   0.7100611100000001    0.2895925200000000    0.0398304300000000 Ba
   0.7100611100000001    0.2895925200000000    0.4601695700000000 Ba
   0.7899388900000001    0.7895925200000000    0.0398304300000000 Ba
   0.7899388900000001    0.7895925200000000    0.4601695700000000 Ba
   0.9238784000000000    0.5178124900000000    0.7500000000000000 Ba
   0.0113743400000000    0.9624838200000000    0.7500000000000000 Si
   0.4886256600000000    0.4624838200000000    0.7500000000000000 Si
   0.5113743400000000    0.5375161800000000    0.2500000000000000 Si
   0.9886256600000001    0.0375161800000000    0.2500000000000000 Si
  -0.0000000000000000    0.5000000000000000    0.0000000000000000 O
  -0.0000000000000000    0.5000000000000000    0.5000000000000000 O
   0.5000000000000000   -0.0000000000000000    0.0000000000000000 O
   0.5000000000000000   -0.0000000000000000    0.5000000000000000 O
