Rb2 Li1 In1 F6
1.0
   0.0000000000000000    4.2845519999999997    4.2845519999999997
   4.2845519999999997    0.0000000000000000    4.2845519999999997
   4.2845519999999997    4.2845519999999997    0.0000000000000000
Rb Li In F
2 1 1 6
direct
   0.2500000000000000    0.2500000000000000    0.2500000000000000 Rb
   0.7500000000000000    0.7500000000000000    0.7500000000000000 Rb
   0.5000000000000000    0.5000000000000000    0.5000000000000000 Li
   0.0000000000000000    0.0000000000000000    0.0000000000000000 In
   0.2471529999999990    0.2471529999999990    0.7528469999999990 F
   0.2471529999999990    0.7528469999999990    0.7528469999999990 F
   0.7528469999999990    0.7528469999999990    0.2471529999999990 F
   0.2471529999999990    0.7528469999999990    0.2471529999999990 F
   0.7528469999999990    0.2471529999999990    0.7528469999999990 F
   0.7528469999999990    0.2471529999999990    0.2471529999999990 F
