Ba4 Ni2 W2 O12
1.0
   5.0255029999999996    0.0000310000000000    2.9014769999999999
  -3.3503180000000001    4.7381029999999997    0.0000260000000000
  -1.6752199999999999   -4.7380949999999995    8.7044669999999993
Ba Ni W O
4 2 2 12
direct
   0.6250000000000000    0.3750000000000000    0.1250000000000000 Ba
   0.1250000000000000    0.8750000000000000    0.6250000000000000 Ba
   0.8750000000000000    0.1250000000000000    0.3750000000000000 Ba
   0.3750000000000000    0.6250000000000000    0.8750000000000000 Ba
   0.7500000000000000    0.2500000000000000    0.7499990000000000 Ni
   0.2500000000000000    0.7500000000000000    0.2500010000000000 Ni
   0.5000000000000000    0.5000000000000000    0.5000000000000000 W
   0.0000000000000000    0.0000000000000000    0.9999990000000000 W
   0.3803330000000000    0.1409959999999990    0.3803310000000000 O
   0.8803339999999999    0.6410000000000000    0.8803329999999990 O
   0.1196670000000000    0.8803329999999990    0.1196670000000000 O
   0.6196670000000000    0.3803330000000000    0.6196680000000000 O
   0.3803320000000000    0.6196670000000000    0.3803320000000000 O
   0.8803339999999999    0.1196660000000000    0.8803329999999990 O
   0.8590040000000000    0.6196680000000000    0.3803310000000000 O
   0.3590000000000000    0.1196670000000000    0.8803329999999990 O
   0.1196670000000000    0.3590009999999990    0.1196670000000000 O
   0.6196670000000000    0.8590030000000000    0.6196680000000000 O
   0.6409990000000000    0.8803329999999990    0.1196680000000000 O
   0.1409969999999990    0.3803330000000000    0.6196680000000000 O
