Ca4 Ta4 N4 O8
1.0
   5.5967440000000002    0.0000000000000000    0.0000000000000000
   0.0000000000000000    5.7150080000000001    0.0000000000000000
   0.0000000000000000    0.0000000000000000    7.8578760000000001
Ca Ta N O
4 4 4 8
direct
   0.2422710000000000    0.4507219999999990    0.5000000000000000 Ca
   0.7577290000000000    0.9507220000000000    0.5000000000000000 Ca
   0.7321179999999990    0.0374860000000000    0.0000000000000000 Ca
   0.2678820000000000    0.5374860000000000    0.0000000000000000 Ca
   0.7653829999999990    0.4880430000000000    0.2540530000000000 Ta
   0.2346170000000000    0.9880430000000000    0.2540530000000000 Ta
   0.2346170000000000    0.9880430000000000    0.7459469999999990 Ta
   0.7653829999999990    0.4880430000000000    0.7459469999999990 Ta
   0.9643020000000000    0.2163240000000000    0.7040330000000000 N
   0.0356980000000000    0.7163240000000000    0.2959670000000000 N
   0.9643020000000000    0.2163240000000000    0.2959670000000000 N
   0.0356980000000000    0.7163240000000000    0.7040330000000000 N
   0.8320449999999990    0.4819569999999990    0.0000000000000000 O
   0.5376400000000000    0.7961180000000000    0.2019880000000000 O
   0.3467480000000000    0.0290649999999990    0.5000000000000000 O
   0.1679550000000000    0.9819570000000000    0.0000000000000000 O
   0.6532519999999991    0.5290650000000000    0.5000000000000000 O
   0.5376400000000000    0.7961180000000000    0.7980119999999991 O
   0.4623600000000000    0.2961180000000000    0.2019880000000000 O
   0.4623600000000000    0.2961180000000000    0.7980119999999991 O
