Cs1 Cr5 S8
1.0
   3.4540476000000000   -0.0001053000000000   -0.6657304700000000
  -0.4251608700000000    8.5468428400000001   -2.2117988000000000
  -0.0185813600000000   -0.0170148600000000    9.2046146100000001
Cs Cr S
1 5 8
direct
   0.5000008300000001    0.5000004300000001   -0.0000004900000000 Cs
   0.9999985700000000    0.9999958900000000    0.9999987700000000 Cr
   0.6597576400000000    0.9785990400000000    0.3194198800000000 Cr
   0.3402449700000000    0.0214000700000000    0.6805812200000000 Cr
   0.7047214300000000    0.3352366100000000    0.4101365999999990 Cr
   0.2952855600000000    0.6647720900000000    0.5898658800000001 Cr
   0.4234754900000000    0.8514623000000000    0.8467440800000000 S
   0.5765158400000000    0.1485302300000000    0.1532541900000000 S
   0.9120079800000001    0.1630469900000000    0.8238066500000000 S
   0.0879925400000000    0.8369480400000000    0.1761923800000000 S
   0.8273340400000000    0.5145275800000000    0.6542072100000000 S
   0.1726685900000000    0.4854807700000000    0.3457958800000000 S
   0.7614634700000000    0.8424973300000000    0.5224223000000000 S
   0.2385320500000000    0.1575026500000000    0.4775764400000000 S
