K2 Li1 Al1 F6
1.0
  -3.9893329999999998   -3.9893329999999998    0.0000000000000000
  -3.9893329999999998    0.0000000000000000   -3.9893329999999998
   0.0000000000000000   -3.9893329999999998   -3.9893329999999998
K Li Al F
2 1 1 6
direct
   0.2500000000000000    0.2500000000000000    0.2500000000000000 K
   0.7500000000000000    0.7500000000000000    0.7500000000000000 K
   0.5000000000000000    0.5000000000000000    0.5000000000000000 Li
   0.0000000000000000    0.0000000000000000    0.0000000000000000 Al
   0.7687820000000000    0.7687820000000000    0.2312179999999990 F
   0.2312179999999990    0.7687820000000000    0.7687820000000000 F
   0.2312179999999990    0.2312179999999990    0.7687820000000000 F
   0.7687820000000000    0.2312179999999990    0.7687820000000000 F
   0.2312179999999990    0.7687820000000000    0.2312179999999990 F
   0.7687820000000000    0.2312179999999990    0.2312179999999990 F
