Cs2 Na1 As1 F6
1.0
   0.0000000000000000    4.5219040000000001    4.5219040000000001
   4.5219040000000001    0.0000000000000000    4.5219040000000001
   4.5219040000000001    4.5219040000000001    0.0000000000000000
Cs Na As F
2 1 1 6
direct
   0.7500000000000000    0.7500000000000000    0.7500000000000000 Cs
   0.2500000000000000    0.2500000000000000    0.2500000000000000 Cs
   0.5000000000000000    0.5000000000000000    0.5000000000000000 Na
   0.0000000000000000    0.0000000000000000    0.0000000000000000 As
   0.7683639999999990    0.2316359999999990    0.2316359999999990 F
   0.2316359999999990    0.2316359999999990    0.7683639999999990 F
   0.2316359999999990    0.7683639999999990    0.7683639999999990 F
   0.2316359999999990    0.7683639999999990    0.2316359999999990 F
   0.7683639999999990    0.2316359999999990    0.7683639999999990 F
   0.7683639999999990    0.7683639999999990    0.2316359999999990 F
