Ba1 Hf1 O3
1.0
  -0.0002637900000000   -4.1700416200000001    0.0025250300000000
  -4.1690904399999997    0.0001778300000000   -0.0025225200000000
   0.0024841800000000   -0.0029373400000000   -4.1703748599999999
Ba Hf O
1 1 3
direct
   0.9879242200000000    0.9999652000000000    0.9964249600000000 Ba
   0.4880073900000000    0.4999867300000000    0.4978753300000000 Hf
   0.4880311500000000    0.0000082000000000    0.4988901400000000 O
   0.9879967100000000    0.5000267400000000    0.4988653500000000 O
   0.4880415300000000    0.5000121300000000    0.9979412200000001 O
