Sr2 Hf2 O6
1.0
   4.9966726499999998   -0.0000000000000000    2.8826270200000002
   1.6801834599999990    4.7099396499999999    2.8594792600000001
   0.0065838300000000   -0.0164100700000000    5.7604570299999995
Sr Hf O
2 2 6
direct
   0.2500000000000000    0.2577445200000000    0.2422554800000000 Sr
   0.7500000000000000    0.7422554800000000    0.7577445200000000 Sr
   0.0000000000000000    0.0000000000000000   -0.0000000000000000 Hf
   0.5000000000000000    0.5000000000000000    0.5000000000000000 Hf
   0.7107194100000001    0.2892805900000000    0.7892805900000001 O
   0.7892805900000001    0.7107194100000001    0.2107194100000000 O
   0.2892805900000000    0.7107194100000001    0.2107194100000000 O
   0.2107194100000000    0.2892805900000000    0.7892805900000001 O
   0.2500000000000000    0.8228499700000000    0.6771500300000001 O
   0.7500000000000000    0.1771500300000000    0.3228499700000000 O
