ADDGRID = True
ALGO = Fast
EDIFF = 1e-06
EFIELD_PEAD = 5.205652288842704e-07 5.184837087232391e-07 -0.00299999991003108
ENCUT = 520.0
IBRION = -1
ISMEAR = 0
ISPIN = 2
ISYM = 0
LASPH = True
LCALCEPS = False
LCALCPOL = True
LCHARG = False
LMAXMIX = 4
LORBIT = 11
LREAL = False
LWAVE = False
MAGMOM = 5*0.0
NELM = 100
NSW = 0
PREC = Accurate
SIGMA = 0.05
SKIP_EDOTP = True
SYMPREC = 1e-08
