Rb2 Li1 Tl1 F6
1.0
   0.0000000000000000    4.3456479999999997    4.3456479999999997
   4.3456479999999997    0.0000000000000000    4.3456479999999997
   4.3456479999999997    4.3456479999999997    0.0000000000000000
Rb Li Tl F
2 1 1 6
direct
   0.2500000000000000    0.2500000000000000    0.2500000000000000 Rb
   0.7500000000000000    0.7500000000000000    0.7500000000000000 Rb
   0.5000000000000000    0.5000000000000000    0.5000000000000000 Li
   0.0000000000000000    0.0000000000000000    0.0000000000000000 Tl
   0.2537149999999990    0.2537149999999990    0.7462850000000000 F
   0.2537149999999990    0.7462850000000000    0.7462850000000000 F
   0.7462850000000000    0.7462850000000000    0.2537149999999990 F
   0.2537149999999990    0.7462850000000000    0.2537149999999990 F
   0.7462850000000000    0.2537149999999990    0.7462850000000000 F
   0.7462850000000000    0.2537149999999990    0.2537149999999990 F
