Mn1 Tl1 F3
1.0
  -1.7294468599999999    2.4455888799999999    2.9920264300000001
  -3.4641757200000001   -2.4382830699999989   -0.0090347200000000
   1.7188269100000000   -2.4526313200000001    2.9948445399999999
Mn Tl F
1 1 3
direct
   0.5119105300000000    0.4998255700000000    0.5022307000000000 Mn
   0.0093232000000000    0.9980741800000000    0.0049852900000000 Tl
   0.5135796100000000    1.0001326100000001    0.5024764200000000 F
   0.0123261400000000    0.5022121200000000    0.4985884200000000 F
   0.5128635200000000    0.4997575200000000    0.0017121600000000 F
