Na4 Zn4 F12
1.0
   5.3505155699999998    0.0000000000000000    0.0000000000000000
   0.0000000000000000    5.5832595999999999    0.0000000000000000
   0.0000000000000000    0.0000000000000000    7.7017157200000002
Na Zn F
4 4 12
direct
   0.0188828100000000    0.9375446900000001    0.7500000000000000 Na
   0.5188828100000000    0.5624553100000000    0.2500000000000000 Na
   0.4811171900000000    0.4375446900000000    0.7500000000000000 Na
   0.9811171900000000    0.0624553100000000    0.2500000000000000 Na
   0.5000000000000000    0.0000000000000000    0.5000000000000000 Zn
   0.0000000000000000    0.5000000000000000    0.5000000000000000 Zn
  -0.0000000000000000    0.5000000000000000    0.0000000000000000 Zn
   0.5000000000000000    0.0000000000000000    0.0000000000000000 Zn
   0.6941144100000000    0.3014020500000000    0.4418952700000000 F
   0.1941144100000000    0.1985979500000000    0.5581047300000000 F
   0.8058855900000000    0.8014020500000000    0.0581047300000000 F
   0.3058855900000000    0.6985979500000000    0.9418952700000001 F
   0.3058855900000000    0.6985979500000000    0.5581047300000000 F
   0.8058855900000000    0.8014020500000000    0.4418952700000000 F
   0.1941144100000000    0.1985979500000000    0.9418952700000001 F
   0.6941144100000000    0.3014020500000000    0.0581047300000000 F
   0.1113699000000000    0.4592835600000000    0.2500000000000000 F
   0.6113699000000000    0.0407164400000000    0.7500000000000000 F
   0.3886301000000000    0.9592835600000000    0.2500000000000000 F
   0.8886301000000000    0.5407164400000000    0.7500000000000000 F
