K2 Li1 Rh1 F6
1.0
  -0.0000000000000000    4.0058974100000002    4.0058974100000002
   4.0058974100000002   -0.0000000000000000    4.0058974100000002
   4.0058974100000002    4.0058974100000002    0.0000000000000000
K Li Rh F
2 1 1 6
direct
   0.7500000000000000    0.7500000000000000    0.7500000000000000 K
   0.2500000000000000    0.2500000000000000    0.2500000000000000 K
   0.5000000000000000    0.5000000000000000    0.5000000000000000 Li
  -0.0000000000000000    0.0000000000000000   -0.0000000000000000 Rh
   0.7519900100000000    0.2480099900000000    0.2480099900000000 F
   0.2480099900000000    0.2480099900000000    0.7519900100000000 F
   0.2480099900000000    0.7519900100000000    0.7519900100000000 F
   0.2480099900000000    0.7519900100000000    0.2480099900000000 F
   0.7519900100000000    0.2480099900000000    0.7519900100000000 F
   0.7519900100000000    0.7519900100000000    0.2480099900000000 F
