Li1 Tl2 Ga1 F6
1.0
   0.0000000000000000    4.1852520000000002    4.1852520000000002
   4.1852520000000002    0.0000000000000000    4.1852520000000002
   4.1852520000000002    4.1852520000000002    0.0000000000000000
Li Tl Ga F
1 2 1 6
direct
   0.0000000000000000    0.0000000000000000    0.0000000000000000 Li
   0.2500000000000000    0.2500000000000000    0.2500000000000000 Tl
   0.7500000000000000    0.7500000000000000    0.7500000000000000 Tl
   0.5000000000000000    0.5000000000000000    0.5000000000000000 Ga
   0.2671360000000000    0.7328640000000000    0.7328640000000000 F
   0.2671360000000000    0.7328640000000000    0.2671360000000000 F
   0.7328640000000000    0.2671360000000000    0.7328640000000000 F
   0.7328640000000000    0.7328640000000000    0.2671360000000000 F
   0.2671360000000000    0.2671360000000000    0.7328640000000000 F
   0.7328640000000000    0.2671360000000000    0.2671360000000000 F
