Na8 Ta7 V1 O24
1.0
   7.9186660000000000    0.0000000000000000    0.0000000000000000
   0.0000000000000000    7.9186660000000000    0.0000000000000000
   0.0000000000000000    0.0000000000000000    7.9186660000000000
Na Ta V O
8 7 1 24
direct
   0.7514600000000000    0.7514600000000000    0.7514600000000000 Na
   0.7514600000000000    0.7514600000000000    0.2485400000000000 Na
   0.7514600000000000    0.2485400000000000    0.7514600000000000 Na
   0.7514600000000000    0.2485400000000000    0.2485400000000000 Na
   0.2485400000000000    0.7514600000000000    0.7514600000000000 Na
   0.2485400000000000    0.7514600000000000    0.2485400000000000 Na
   0.2485400000000000    0.2485400000000000    0.7514600000000000 Na
   0.2485400000000000    0.2485400000000000    0.2485400000000000 Na
   0.0000000000000000    0.0000000000000000    0.5000000000000000 Ta
   0.0000000000000000    0.5000000000000000    0.0000000000000000 Ta
   0.0000000000000000    0.5000000000000000    0.5000000000000000 Ta
   0.5000000000000000    0.0000000000000000    0.0000000000000000 Ta
   0.5000000000000000    0.0000000000000000    0.5000000000000000 Ta
   0.5000000000000000    0.5000000000000000    0.0000000000000000 Ta
   0.5000000000000000    0.5000000000000000    0.5000000000000000 Ta
   0.0000000000000000    0.0000000000000000    0.0000000000000000 V
   0.0000000000000000    0.7560660000000000    0.0000000000000000 O
   0.0000000000000000    0.7505320000000000    0.5000000000000000 O
   0.0000000000000000    0.2439339999999990    0.0000000000000000 O
   0.0000000000000000    0.2494680000000000    0.5000000000000000 O
   0.5000000000000000    0.7505320000000000    0.0000000000000000 O
   0.5000000000000000    0.7500500000000001    0.5000000000000000 O
   0.5000000000000000    0.2494680000000000    0.0000000000000000 O
   0.5000000000000000    0.2499500000000000    0.5000000000000000 O
   0.7560660000000000    0.0000000000000000    0.0000000000000000 O
   0.7505320000000000    0.0000000000000000    0.5000000000000000 O
   0.7505320000000000    0.5000000000000000    0.0000000000000000 O
   0.7500500000000001    0.5000000000000000    0.5000000000000000 O
   0.2439339999999990    0.0000000000000000    0.0000000000000000 O
   0.2494680000000000    0.0000000000000000    0.5000000000000000 O
   0.2494680000000000    0.5000000000000000    0.0000000000000000 O
   0.2499500000000000    0.5000000000000000    0.5000000000000000 O
   0.0000000000000000    0.0000000000000000    0.7560660000000000 O
   0.0000000000000000    0.0000000000000000    0.2439339999999990 O
   0.0000000000000000    0.5000000000000000    0.7505320000000000 O
   0.0000000000000000    0.5000000000000000    0.2494680000000000 O
   0.5000000000000000    0.0000000000000000    0.7505320000000000 O
   0.5000000000000000    0.0000000000000000    0.2494680000000000 O
   0.5000000000000000    0.5000000000000000    0.7500500000000001 O
   0.5000000000000000    0.5000000000000000    0.2499500000000000 O
