K2 Rb4 Y2 F12
1.0
   6.7506319999999995    0.0000000000000000    0.0000000000000000
   0.0000000000000000    6.5813649999999999    0.0000000000000000
   0.0000000000000000    6.5380070000000003    9.3671600000000002
K Rb Y F
2 4 2 12
direct
   0.0000000000000000    0.5000000000000000    0.5000000000000000 K
   0.5000000000000000    0.5000000000000000    0.0000000000000000 K
   0.9562210000000000    0.2626630000000000    0.2481380000000000 Rb
   0.5437790000000000    0.2626630000000000    0.7481380000000000 Rb
   0.4562210000000000    0.7373370000000000    0.2518620000000000 Rb
   0.0437790000000000    0.7373370000000000    0.7518619999999990 Rb
   0.0000000000000000    0.0000000000000000    0.0000000000000000 Y
   0.5000000000000000    0.0000000000000000    0.5000000000000000 Y
   0.2671110000000000    0.2306129999999990    0.9461689999999990 F
   0.7671110000000000    0.7693869999999990    0.5538310000000000 F
   0.7328890000000000    0.7693869999999990    0.0538310000000000 F
   0.2328889999999990    0.2306129999999990    0.4461690000000000 F
   0.1818550000000000    0.6879240000000000    0.0411150000000000 F
   0.6818550000000000    0.3120759999999990    0.4588850000000000 F
   0.8181450000000000    0.3120759999999990    0.9588850000000000 F
   0.3181450000000000    0.6879240000000000    0.5411150000000000 F
   0.4611869999999990    0.8646929999999990    0.7249329999999991 F
   0.9611869999999991    0.1353069999999990    0.7750670000000000 F
   0.5388130000000000    0.1353069999999990    0.2750670000000000 F
   0.0388130000000000    0.8646929999999990    0.2249330000000000 F
