Ba12 Ta8 Mn4 O36
1.0
  -2.9431929999999999   -5.0976910000000002   -7.2466309999999998
  -2.9431889999999998    5.0980740000000004   -7.2469020000000004
  11.7728710000000003    0.0000060000000000   -0.0000430000000000
Ba Ta Mn O
12 8 4 36
direct
   0.0000140000000000    0.0000210000000000    0.4999849999999990 Ba
   0.5000100000000001    0.5000140000000000    0.7499930000000000 Ba
   0.9999939999999991    0.9999910000000000    0.0000000000000000 Ba
   0.4999960000000000    0.4999989999999990    0.2499950000000000 Ba
   0.3350289999999990    0.0017000000000000    0.3341960000000000 Ba
   0.8350100000000000    0.5016710000000000    0.5841390000000000 Ba
   0.3350460000000000    0.0016820000000000    0.8341820000000000 Ba
   0.8350230000000000    0.5017020000000000    0.0841750000000000 Ba
   0.1649719999999990    0.4982800000000001    0.4158040000000000 Ba
   0.6649370000000000    0.9983040000000000    0.6657980000000000 Ba
   0.1649670000000000    0.4983149999999991    0.9158600000000001 Ba
   0.6649600000000001    0.9982829999999990    0.1658059999999990 Ba
   0.5802849999999991    0.2469779999999990    0.4567859999999990 Ta
   0.0803200000000000    0.7470200000000000    0.7068590000000000 Ta
   0.5803410000000000    0.2469519999999990    0.9568300000000001 Ta
   0.0802830000000000    0.7469650000000000    0.2068150000000000 Ta
   0.9197360000000000    0.2530170000000000    0.2932000000000000 Ta
   0.4196709999999990    0.7530740000000000    0.5431969999999990 Ta
   0.9196800000000001    0.2530179999999990    0.7931539999999990 Ta
   0.4197300000000000    0.7530140000000000    0.0432170000000000 Ta
   0.2500990000000000    0.2503730000000000    0.6252550000000000 Mn
   0.7500140000000000    0.7498549999999991    0.8749400000000001 Mn
   0.2500090000000000    0.2499759999999990    0.1249570000000000 Mn
   0.7500950000000000    0.7499540000000000    0.3751700000000000 Mn
   0.9999920000000000    0.9999939999999991    0.2499870000000000 O
   0.4999969999999990    0.4999869999999990    0.4999900000000000 O
   0.9999950000000000    0.9999840000000000    0.7499880000000000 O
   0.4999869999999990    0.4999909999999990    0.9999840000000000 O
   0.7499850000000000    0.2499910000000000    0.3750000000000000 O
   0.2499829999999990    0.7499920000000000    0.6249819999999990 O
   0.7499880000000000    0.2499920000000000    0.8749990000000000 O
   0.2499950000000000    0.7499990000000000    0.1249759999999990 O
   0.2499859999999990    0.7499739999999990    0.3750030000000000 O
   0.7500160000000000    0.2500090000000000    0.6249900000000000 O
   0.2499650000000000    0.7499770000000000    0.8749830000000000 O
   0.7499880000000000    0.2500150000000000    0.1249639999999990 O
   0.4271169999999990    0.2529170000000000    0.3006560000000000 O
   0.9271429999999991    0.7529070000000000    0.5506869999999990 O
   0.4271240000000000    0.2529440000000000    0.8006780000000000 O
   0.9271339999999991    0.7529030000000000    0.0506680000000000 O
   0.0728590000000000    0.2470959999999990    0.4493230000000000 O
   0.5728719999999990    0.7470559999999991    0.6993170000000000 O
   0.0728530000000000    0.2470760000000000    0.9493020000000000 O
   0.5728750000000000    0.7470680000000000    0.1993300000000000 O
   0.6657910000000000    0.0142580000000000    0.4200290000000000 O
   0.1657710000000000    0.5142829999999990    0.6700039999999990 O
   0.6657790000000000    0.0142650000000000    0.9200130000000000 O
   0.1657740000000000    0.5142530000000000    0.1699890000000000 O
   0.8342160000000000    0.4857370000000000    0.3299930000000000 O
   0.3342040000000000    0.9857450000000000    0.5799740000000000 O
   0.8342170000000000    0.4857240000000000    0.8299860000000000 O
   0.3342009999999990    0.9857290000000000    0.0799560000000000 O
   0.4271149999999990    0.2529280000000000    0.5393330000000000 O
   0.9271200000000001    0.7529210000000000    0.7893169999999990 O
   0.4271040000000000    0.2529119999999990    0.0393090000000000 O
   0.9271180000000000    0.7529279999999990    0.2893380000000000 O
   0.0728740000000000    0.2470600000000000    0.2106440000000000 O
   0.5728909999999990    0.7470740000000000    0.4606700000000000 O
   0.0728740000000000    0.2470780000000000    0.7106680000000000 O
   0.5728770000000000    0.7470749999999990    0.9606570000000000 O
