Sr12 Ge4 O4
1.0
   7.1658538500000004   -0.0000000000000000    0.0000000000000000
  -0.0000000000000000    7.1391104399999996    0.0000000000000000
   0.0000000000000000    0.0000000000000000   10.1255217399999999
Sr Ge O
12 4 4
direct
   0.2193482100000000    0.7814382600000001    0.0307304100000000 Sr
   0.7193482100000000    0.7185617400000001    0.4692695900000000 Sr
   0.2806517900000000    0.2814382600000000    0.9692695900000000 Sr
   0.7806517900000001    0.2185617400000000    0.5307304100000000 Sr
   0.2193482100000000    0.7814382600000001    0.4692695900000000 Sr
   0.7193482100000000    0.7185617400000001    0.0307304100000000 Sr
   0.2806517900000000    0.2814382600000000    0.5307304100000000 Sr
   0.7806517900000001    0.2185617400000000    0.9692695900000000 Sr
   0.5100416999999990    0.0591443600000000    0.2500000000000000 Sr
   0.0100416999999990    0.4408556400000000    0.2500000000000000 Sr
   0.9899583000000000    0.5591443600000000    0.7500000000000000 Sr
   0.4899573000000000    0.9408556400000000    0.7500000000000000 Sr
   0.9752964600000000    0.9945585300000001    0.2500000000000000 Ge
   0.4752964600000000    0.5054414700000001    0.2500000000000000 Ge
   0.5247035400000000    0.4945585300000000    0.7500000000000000 Ge
   0.0247035400000000    0.0054414700000000    0.7500000000000000 Ge
  -0.0000000000000000    0.5000000000000000    0.5000000000000000 O
   0.5000000000000000   -0.0000000000000000   -0.0000000000000000 O
   0.5000000000000000   -0.0000000000000000    0.5000000000000000 O
  -0.0000000000000000    0.5000000000000000   -0.0000000000000000 O
