K4 Au4 I12
1.0
   9.4614235900000008    0.0000000000000000    0.0000000000000000
   0.0000000000000000    7.3684923800000002    0.0215057200000000
   0.0000000000000000    6.8755191900000003   11.5653723599999996
K Au I
4 4 12
direct
   0.1171510200000000    0.1890774500000000    0.2510947600000000 K
   0.6171510200000000    0.8109225500000000    0.2489052400000000 K
   0.8828489800000000    0.8109225500000000    0.7489052400000000 K
   0.3828489800000000    0.1890774500000000    0.7510947600000000 K
   0.5000000000000000    0.5000000000000000    0.0000000000000000 Au
  -0.0000000000000000    0.5000000000000000    0.5000000000000000 Au
   0.5000000000000000   -0.0000000000000000    0.5000000000000000 Au
  -0.0000000000000000   -0.0000000000000000    0.0000000000000000 Au
   0.1527471600000000    0.7439621000000000    0.9652959400000001 I
   0.6527471600000000    0.2560379000000000    0.5347040600000000 I
   0.8472528400000000    0.2560379000000000    0.0347040600000000 I
   0.3472528400000000    0.7439621000000000    0.4652959400000000 I
   0.9927152300000001    0.3407749200000000    0.7309093900000000 I
   0.4927152300000000    0.6592250800000000    0.7690906100000000 I
   0.0072847700000000    0.6592250800000000    0.2690906100000000 I
   0.5072847700000001    0.3407749200000000    0.2309093900000000 I
   0.1598337700000000    0.1754123900000000    0.5321159400000001 I
   0.6598337700000000    0.8245876100000000    0.9678840600000000 I
   0.8401662300000000    0.8245876100000000    0.4678840600000000 I
   0.3401662300000000    0.1754123900000000    0.0321159400000000 I
