Ca3 Sb1 N1
1.0
   4.8601818899999998    0.0000000000000000    0.0000000000000000
   0.0000000000000000    4.8601818899999998   -0.0000000000000000
   0.0000000000000000    0.0000000000000000    4.8601818899999998
Ca Sb N
3 1 1
direct
   0.0000000000000000    0.5000000000000000    0.5000000000000000 Ca
   0.5000000000000000   -0.0000000000000000    0.5000000000000000 Ca
   0.5000000000000000    0.5000000000000000    0.0000000000000000 Ca
   0.0000000000000000    0.0000000000000000    0.0000000000000000 Sb
   0.5000000000000000    0.5000000000000000    0.5000000000000000 N
