K2 Rb4 Sc2 F12
1.0
   6.3691026700000002    0.0000000000000000    0.0000000000000000
   0.0000000000000000    6.3072480700000000   -0.0119454700000000
   0.0000000000000000   -0.0012589900000000    8.9519035799999997
K Rb Sc F
2 4 2 12
direct
  -0.0000000000000000   -0.0000000000000000    0.5000000000000000 K
   0.5000000000000000    0.5000000000000000   -0.0000000000000000 K
   0.5336153300000001    0.9932071100000001    0.7498780200000000 Rb
   0.0336153300000000    0.5067928900000001    0.7501219800000000 Rb
   0.4663846700000000    0.0067928900000000    0.2501219800000000 Rb
   0.9663846700000001    0.4932071100000000    0.2498780200000000 Rb
   0.0000000000000000   -0.0000000000000000   -0.0000000000000000 Sc
   0.5000000000000000    0.5000000000000000    0.5000000000000000 Sc
   0.2433673900000000    0.3195077800000000    0.4601371800000000 F
   0.7433673900000000    0.1804922200000000    0.0398628200000000 F
   0.7566326100000000    0.6804922200000000    0.5398628200000000 F
   0.2566326100000000    0.8195077800000000    0.9601371800000000 F
   0.3153886200000000    0.7566272700000000    0.5324884200000000 F
   0.8153886200000000    0.7433727300000000    0.9675115800000000 F
   0.6846113800000000    0.2433727300000000    0.4675115800000000 F
   0.1846113800000000    0.2566272700000000    0.0324884200000000 F
   0.0227385300000000    0.9317610000000000    0.2197819100000000 F
   0.5227385300000000    0.5682389999999991    0.2802180900000000 F
   0.9772614700000000    0.0682390000000000    0.7802180900000000 F
   0.4772614700000000    0.4317610000000000    0.7197819100000000 F
