Rb2 Na1 Al1 F6
1.0
  -4.2246389999999998   -4.2246389999999998    0.0000000000000000
  -4.2246389999999998    0.0000000000000000   -4.2246389999999998
   0.0000000000000000   -4.2246389999999998   -4.2246389999999998
Rb Na Al F
2 1 1 6
direct
   0.2500000000000000    0.2500000000000000    0.2500000000000000 Rb
   0.7500000000000000    0.7500000000000000    0.7500000000000000 Rb
   0.5000000000000000    0.5000000000000000    0.5000000000000000 Na
   0.0000000000000000    0.0000000000000000    0.0000000000000000 Al
   0.7810969999999990    0.7810969999999990    0.2189030000000000 F
   0.2189030000000000    0.7810969999999990    0.7810969999999990 F
   0.2189030000000000    0.2189030000000000    0.7810969999999990 F
   0.7810969999999990    0.2189030000000000    0.7810969999999990 F
   0.2189030000000000    0.7810969999999990    0.2189030000000000 F
   0.7810969999999990    0.2189030000000000    0.2189030000000000 F
