K1 Cr5 S8
1.0
   3.4298059699999999    0.0000000000000000   -0.6642618200000000
  -0.4351704200000000    8.3981525999999995   -2.2469294199999998
  -0.0054667200000000   -0.0326565000000000    9.1585104899999994
K Cr S
1 5 8
direct
   0.5000049600000001    0.4999954100000000    0.0000089100000000 K
   0.7042124100000000    0.3351237900000000    0.4084248100000000 Cr
   0.3419753200000000    0.0284674200000000    0.6839496400000000 Cr
   0.6580262500000000    0.9715365300000001    0.3160544999999990 Cr
  -0.0000012600000000   -0.0000021600000000   -0.0000025200000000 Cr
   0.2957850400000000    0.6648720000000000    0.5915710700000000 Cr
   0.2374445600000000    0.1552971800000000    0.4748881100000000 S
   0.7625571800000001    0.8447016200000000    0.5251143600000000 S
   0.1709308700000000    0.4870427500000000    0.3418627300000000 S
   0.8290685800000001    0.5129587600000000    0.6581351600000001 S
   0.0839924800000000    0.8250426000000000    0.1679849500000000 S
   0.9160077900000000    0.1749668999999990    0.8320155700000000 S
   0.4229688500000000    0.8524790800000001    0.8459377000000000 S
   0.5770279900000000    0.1475171100000000    0.1540549900000000 S
