Sr4 Bi4 O12
1.0
   5.9549621799999999    0.0000000000000000   -0.0050797600000000
   0.0000000000000000    6.1441166300000001    0.0000000000000000
   0.0020894999999990    0.0000000000000000    8.5054104699999993
Sr Bi O
4 4 12
direct
   0.9856129100000001    0.5511513300000001    0.2492423400000000 Sr
   0.5143870900000000    0.0511513300000000    0.2507576600000000 Sr
   0.0143870900000000    0.4488486700000000    0.7507576600000000 Sr
   0.4856129100000000    0.9488486700000001    0.7492423400000000 Sr
   0.0000000000000000   -0.0000000000000000   -0.0000000000000000 Bi
   0.5000000000000000    0.5000000000000000    0.5000000000000000 Bi
   0.0000000000000000   -0.0000000000000000    0.5000000000000000 Bi
   0.5000000000000000    0.5000000000000000   -0.0000000000000000 Bi
   0.6891641500000000    0.7856000100000000    0.0588854700000000 O
   0.8108358500000000    0.2856000100000000    0.4411145300000000 O
   0.3108358500000000    0.2143999900000000    0.9411145300000000 O
   0.1891641500000000    0.7143999900000000    0.5588854700000000 O
   0.7881920700000000    0.3059733900000000    0.0526008400000000 O
   0.7118079300000000    0.8059733900000000    0.4473991600000000 O
   0.2118079300000000    0.6940266100000000    0.9473991600000000 O
   0.2881920700000000    0.1940266100000000    0.5526008400000000 O
   0.3949823300000000    0.4577150900000000    0.2386411300000000 O
   0.1050176700000000    0.9577150900000000    0.2613588700000000 O
   0.6050176700000001    0.5422849100000000    0.7613588700000000 O
   0.8949823300000000    0.0422849100000000    0.7386411300000000 O
