K1 Ni1 F3
1.0
   4.0080962400000004    0.0000000000000000    0.0000000000000000
   0.0000000000000000    4.0080584699999999    0.0000000000000000
   0.0000000000000000   -0.0000000000000000    4.0080598800000002
K Ni F
1 1 3
direct
   0.0000000000000000   -0.0000000000000000   -0.0000000000000000 K
   0.5000000000000000    0.5000000000000000    0.5000000000000000 Ni
   0.0000000000000000    0.5000000000000000    0.5000000000000000 F
   0.5000000000000000   -0.0000000000000000    0.5000000000000000 F
   0.5000000000000000    0.5000000000000000   -0.0000000000000000 F
