ADDGRID = True
ALGO = Fast
EDIFF = 1e-06
EFIELD_PEAD = 2.8098789007684695e-06 -0.0 -0.002999998684096472
ENCUT = 520.0
IBRION = -1
ISMEAR = 0
ISPIN = 2
ISYM = 0
LASPH = True
LCALCEPS = False
LCALCPOL = True
LCHARG = False
LMAXMIX = 4
LORBIT = 11
LREAL = False
LWAVE = False
MAGMOM = 20*-0.0
NELM = 100
NSW = 0
PREC = Accurate
SIGMA = 0.05
SKIP_EDOTP = True
SYMPREC = 1e-08
