Sr4 Y2 Sb2 O12
1.0
   5.9342550000000003    0.0000000000000000    0.0000000000000000
   0.0000000000000000    5.8666559999999999    0.0000000000000000
   0.0000000000000000    5.8329329999999997    8.3317499999999995
Sr Y Sb O
4 2 2 12
direct
   0.5349860000000000    0.7587340000000000    0.7496480000000000 Sr
   0.0349859999999990    0.2412659999999990    0.7503520000000000 Sr
   0.4650140000000000    0.2412659999999990    0.2503519999999990 Sr
   0.9650139999999990    0.7587340000000000    0.2496479999999990 Sr
   0.0000000000000000    0.5000000000000000    0.0000000000000000 Y
   0.5000000000000000    0.5000000000000000    0.5000000000000000 Y
   0.5000000000000000    0.0000000000000000    0.0000000000000000 Sb
   0.0000000000000000    0.0000000000000000    0.5000000000000000 Sb
   0.9771569999999991    0.6861780000000000    0.7352470000000000 O
   0.4771570000000000    0.3138220000000000    0.7647530000000000 O
   0.0228430000000000    0.3138220000000000    0.2647529999999990 O
   0.5228429999999999    0.6861780000000000    0.2352469999999990 O
   0.3004179999999990    0.7674460000000000    0.9597420000000000 O
   0.8004180000000000    0.2325539999999990    0.5402580000000000 O
   0.6995819999999990    0.2325539999999990    0.0402579999999990 O
   0.1995819999999990    0.7674460000000000    0.4597420000000000 O
   0.7262240000000000    0.8468680000000000    0.4568109999999990 O
   0.2262239999999990    0.1531320000000000    0.0431890000000000 O
   0.2737759999999990    0.1531320000000000    0.5431889999999990 O
   0.7737760000000000    0.8468680000000000    0.9568110000000000 O
