Ba1 La1 Mg1 Bi1 O6
1.0
   0.0000000000000000    4.1479970000000002    4.1479970000000002
   4.1479970000000002    0.0000000000000000    4.1479970000000002
   4.1479970000000002    4.1479970000000002    0.0000000000000000
Ba La Mg Bi O
1 1 1 1 6
direct
   0.7500000000000000    0.7500000000000000    0.7500000000000000 Ba
   0.2500000000000000    0.2500000000000000    0.2500000000000000 La
   0.5000000000000000    0.5000000000000000    0.5000000000000000 Mg
   0.0000000000000000    0.0000000000000000    0.0000000000000000 Bi
   0.7470500000000001    0.2529500000000000    0.2529500000000000 O
   0.2529500000000000    0.2529500000000000    0.7470500000000001 O
   0.2529500000000000    0.7470500000000001    0.2529500000000000 O
   0.7470500000000001    0.2529500000000000    0.7470500000000001 O
   0.7470500000000001    0.7470500000000001    0.2529500000000000 O
   0.2529500000000000    0.7470500000000001    0.7470500000000001 O
