Sr4 Hf4 O12
1.0
   5.7605346099999997    0.0000000000000000    0.0000000000000000
   0.0000000000000000    5.7770146599999999    0.0000000000000000
   0.0000000000000000    0.0000000000000000    8.1407090199999992
Sr Hf O
4 4 12
direct
   0.0052187400000000    0.5244026400000000    0.2500000000000000 Sr
   0.5052187400000000    0.9755973600000000    0.7500000000000000 Sr
   0.4947812100000000    0.0244055300000000    0.2500000000000000 Sr
   0.9947812100000000    0.4755944700000000    0.7500000000000000 Sr
  -0.0000028100000000    0.0000023500000000   -0.0000007700000000 Hf
   0.4999971900000000    0.4999976500000000    0.0000007700000000 Hf
   0.4999971900000000    0.4999976500000000    0.5000002300000000 Hf
  -0.0000028100000000    0.0000023500000000    0.4999997700000000 Hf
   0.2193089700000000    0.2807083200000000    0.4652360200000000 O
   0.7193089700000000    0.2192916800000000    0.5347639800000000 O
   0.2806931500000000    0.7807057800000000    0.0347643200000000 O
   0.7806931500000001    0.7192942200000000    0.9652356800000000 O
   0.7806931500000001    0.7192942200000000    0.5347643200000000 O
   0.2806931500000000    0.7807057800000000    0.4652356800000000 O
   0.7193089700000000    0.2192916800000000    0.9652360200000000 O
   0.2193089700000000    0.2807083200000000    0.0347639800000000 O
   0.9336591300000000    0.9866125900000000    0.2500000000000000 O
   0.4336591300000000    0.5133874100000000    0.7500000000000000 O
   0.5663393100000000    0.4866143200000000    0.2500000000000000 O
   0.0663393100000000    0.0133856800000000    0.7500000000000000 O
