Tl1 Zn1 F3
1.0
  -0.0011235700000000   -4.1244520199999997   -0.0087978400000000
  -4.1150221499999997   -0.0001848100000000   -0.0045600800000000
   0.0027137200000000    0.0062046800000000   -4.1173361000000002
Tl Zn F
1 1 3
direct
   0.9891051900000000    0.9992848800000000    0.9959681700000000 Tl
   0.4879949900000000    0.5001384200000000    0.4987305400000000 Zn
   0.4873824000000000    0.0002629900000000    0.4976810500000000 F
   0.9876754800000001    0.5002425400000000    0.4992145400000000 F
   0.4878439500000000    0.5000681700000000    0.9984117100000001 F
