Sr12 Si4 O4
1.0
   7.1506613500000000    0.0000000000000000    0.0000000000000000
  -0.0000000000000000    7.1301627400000003    0.0000000000000000
   0.0000000000000000    0.0000000000000000   10.1070595300000008
Sr Si O
12 4 4
direct
   0.2183429400000000    0.7816221500000000    0.0305949800000000 Sr
   0.7183429400000000    0.7183778500000000    0.4694050200000000 Sr
   0.2816570600000000    0.2816221500000000    0.9694050200000001 Sr
   0.7816570600000000    0.2183778500000000    0.5305949800000000 Sr
   0.2183429400000000    0.7816221500000000    0.4694050200000000 Sr
   0.7183429400000000    0.7183778500000000    0.0305949800000000 Sr
   0.2816570600000000    0.2816221500000000    0.5305949800000000 Sr
   0.7816570600000000    0.2183778500000000    0.9694050200000001 Sr
   0.5084531000000000    0.0588010500000000    0.2500000000000000 Sr
   0.0084531000000000    0.4411989500000000    0.2500000000000000 Sr
   0.9915469000000000    0.5588010500000000    0.7500000000000000 Sr
   0.4915468999999991    0.9411989500000000    0.7500000000000000 Sr
   0.9750449800000001    0.9947071100000000    0.2500000000000000 Si
   0.4750449800000000    0.5052928900000000    0.2500000000000000 Si
   0.5249550200000000    0.4947071100000000    0.7500000000000000 Si
   0.0249550200000000    0.0052928900000000    0.7500000000000000 Si
  -0.0000000000000000    0.5000000000000000    0.5000000000000000 O
   0.5000000000000000   -0.0000000000000000    0.0000000000000000 O
   0.5000000000000000   -0.0000000000000000    0.5000000000000000 O
  -0.0000000000000000    0.5000000000000000    0.0000000000000000 O
