ADDGRID = True
ALGO = Fast
EDIFF = 1e-06
ENCUT = 520.0
IBRION = -1
ISMEAR = 0
ISPIN = 2
ISYM = 0
LASPH = True
LCALCEPS = False
LCALCPOL = True
LCHARG = False
LMAXMIX = 4
LORBIT = 11
LREAL = False
LWAVE = False
MAGMOM = 1*-0.0 1*3.014 2*3.027 1*3.059 1*3.058 4*-0.1 2*-0.133 2*-0.069
NELM = 100
NSW = 0
PREC = Accurate
SIGMA = 0.05
SYMPREC = 1e-08
