Cs4 Sr4 Br12
1.0
   8.2123224199999996    0.0000000000000000    0.0000000000000000
  -0.0000000000000000    8.5066996499999998    0.0000000000000000
   0.0000000000000000    0.0000000000000000   11.7923749299999994
Cs Sr Br
4 4 12
direct
   0.0193460400000000    0.4416182200000000    0.2500000000000000 Cs
   0.9806539600000000    0.5583817800000000    0.7500000000000000 Cs
   0.5193460400000001    0.0583817800000000    0.7500000000000000 Cs
   0.4806539600000000    0.9416182200000001    0.2500000000000000 Cs
   0.0000000000000000    0.0000000000000000   -0.0000000000000000 Sr
   0.5000000000000000    0.5000000000000000   -0.0000000000000000 Sr
   0.0000000000000000    0.0000000000000000    0.5000000000000000 Sr
   0.5000000000000000    0.5000000000000000    0.5000000000000000 Sr
   0.2964754300000000    0.2060705100000000    0.0412453900000000 Br
   0.7035245700000000    0.7939294900000000    0.9587546100000001 Br
   0.7964754300000000    0.2939294900000000    0.9587546100000001 Br
   0.7035245700000000    0.7939294900000000    0.5412453900000000 Br
   0.2035245700000000    0.7060705100000000    0.0412453900000000 Br
   0.2964754300000000    0.2060705100000000    0.4587546100000000 Br
   0.2035245700000000    0.7060705100000000    0.4587546100000000 Br
   0.7964754300000000    0.2939294900000000    0.5412453900000000 Br
   0.5801526700000000    0.5159124800000000    0.2500000000000000 Br
   0.4198473300000000    0.4840875200000000    0.7500000000000000 Br
   0.0801526700000000    0.9840875200000000    0.7500000000000000 Br
   0.9198473300000001    0.0159124800000000    0.2500000000000000 Br
