Na1 Sc1 Tl2 F6
1.0
   0.0000000000000000    4.3757210000000004    4.3757210000000004
   4.3757210000000004    0.0000000000000000    4.3757210000000004
   4.3757210000000004    4.3757210000000004    0.0000000000000000
Na Sc Tl F
1 1 2 6
direct
   0.5000000000000000    0.5000000000000000    0.5000000000000000 Na
   0.0000000000000000    0.0000000000000000    0.0000000000000000 Sc
   0.2500000000000000    0.2500000000000000    0.2500000000000000 Tl
   0.7500000000000000    0.7500000000000000    0.7500000000000000 Tl
   0.7668590000000000    0.2331410000000000    0.2331410000000000 F
   0.2331410000000000    0.7668590000000000    0.7668590000000000 F
   0.2331410000000000    0.7668590000000000    0.2331410000000000 F
   0.7668590000000000    0.2331410000000000    0.7668590000000000 F
   0.2331410000000000    0.2331410000000000    0.7668590000000000 F
   0.7668590000000000    0.7668590000000000    0.2331410000000000 F
