Y4 Rh4 O12
1.0
   5.2267773899999996   -0.0000000000000000    0.0000000000000000
  -0.0000000000000000    5.7587243499999996    0.0000000000000000
   0.0000000000000000    0.0000000000000000    7.5804623900000001
Y Rh O
4 4 12
direct
   0.0296517200000000    0.4162796300000000    0.2500000000000000 Y
   0.9703482800000001    0.5837203700000000    0.7500000000000000 Y
   0.5296517200000000    0.0837203700000000    0.7500000000000000 Y
   0.4703482800000000    0.9162796300000000    0.2500000000000000 Y
   0.0000000000000000   -0.0000000000000000   -0.0000000000000000 Rh
   0.5000000000000000    0.5000000000000000   -0.0000000000000000 Rh
   0.0000000000000000   -0.0000000000000000    0.5000000000000000 Rh
   0.5000000000000000    0.5000000000000000    0.5000000000000000 Rh
   0.3234122000000000    0.1903686800000000    0.0613247600000000 O
   0.6765878000000000    0.8096313200000000    0.9386752400000000 O
   0.8234121999999990    0.3096313200000000    0.9386752400000000 O
   0.6765878000000000    0.8096313200000000    0.5613247600000000 O
   0.1765878000000000    0.6903686800000001    0.0613247600000000 O
   0.3234122000000000    0.1903686800000000    0.4386752400000000 O
   0.1765878000000000    0.6903686800000001    0.4386752400000000 O
   0.8234121999999990    0.3096313200000000    0.5613247600000000 O
   0.6322324400000000    0.5514635500000000    0.2500000000000000 O
   0.3677675600000000    0.4485364500000000    0.7500000000000000 O
   0.1322324400000000    0.9485364500000000    0.7500000000000000 O
   0.8677675600000000    0.0514635500000000    0.2500000000000000 O
