Ba8 Mn4 Te4 O24
1.0
  -3.4036409999999999    4.8147479999999998    5.8960999999999997
  -6.8079359999999998   -4.8147060000000002    0.0013100000000000
   1.7039789999999999   -9.6298709999999996    2.9504640000000002
Ba Mn Te O
8 4 4 24
direct
   0.8749950000000000    0.6250190000000000    0.2499960000000000 Ba
   0.6250100000000001    0.3750060000000000    0.7499979999999991 Ba
   0.3749949999999990    0.1249919999999990    0.2499960000000000 Ba
   0.1249820000000000    0.8750049999999990    0.7499969999999990 Ba
   0.1249929999999990    0.3749940000000000    0.7500030000000000 Ba
   0.8750060000000000    0.1249810000000000    0.2500040000000000 Ba
   0.6250200000000000    0.8749929999999990    0.7500049999999990 Ba
   0.3750070000000000    0.6250080000000000    0.2500040000000000 Ba
   0.4999989999999990    0.5000100000000001    0.0000050000000000 Mn
   0.2499940000000000    0.2499960000000000    0.4999869999999990 Mn
   0.7499640000000000    0.7499939999999991    0.4999800000000000 Mn
   0.0000180000000000    0.0000140000000000    0.0000120000000000 Mn
   0.5000019999999999    0.9999950000000000    0.0000060000000000 Te
   0.2499990000000000    0.7500040000000000    0.4999940000000000 Te
   0.9999969999999990    0.5000010000000000    0.9999950000000000 Te
   0.7500040000000000    0.2499980000000000    0.5000060000000000 Te
   0.3818840000000000    0.1181170000000000    0.7637579999999990 O
   0.1318790000000000    0.8681209999999990    0.2637480000000000 O
   0.8818790000000000    0.6181209999999990    0.7637500000000000 O
   0.6318830000000000    0.3681169999999990    0.2637569999999990 O
   0.2636840000000000    0.0000200000000000    0.9999650000000000 O
   0.0137150000000000    0.7499890000000000    0.5000280000000000 O
   0.7636959999999990    0.5000190000000000    0.9999659999999990 O
   0.5137269999999990    0.2499880000000000    0.5000280000000000 O
   0.5000120000000000    0.2362739999999990    0.0000270000000000 O
   0.2499809999999990    0.9863019999999991    0.4999670000000000 O
   0.0000120000000000    0.7362869999999990    0.0000280000000000 O
   0.7499810000000000    0.4863190000000000    0.4999659999999990 O
   0.6181219999999999    0.8818790000000000    0.2362520000000000 O
   0.3681180000000000    0.6318810000000000    0.7362460000000000 O
   0.1181180000000000    0.3818830000000000    0.2362429999999990 O
   0.8681219999999999    0.1318770000000000    0.7362540000000000 O
   0.5000209999999990    0.7636970000000000    0.0000350000000000 O
   0.2499890000000000    0.5137250000000000    0.4999740000000000 O
   0.0000210000000000    0.2636819999999990    0.0000350000000000 O
   0.7499890000000000    0.0137120000000000    0.4999730000000000 O
   0.7362879999999991    0.0000110000000000    0.9999730000000000 O
   0.4863159999999990    0.7499800000000001    0.5000350000000000 O
   0.2362749999999990    0.5000100000000001    0.9999739999999990 O
   0.9863040000000000    0.2499800000000000    0.5000340000000000 O
