Rb2 Na1 Rh1 F6
1.0
   0.0000000000000000    4.3325880000000003    4.3325880000000003
   4.3325880000000003    0.0000000000000000    4.3325880000000003
   4.3325880000000003    4.3325880000000003    0.0000000000000000
Rb Na Rh F
2 1 1 6
direct
   0.7500000000000000    0.7500000000000000    0.7500000000000000 Rb
   0.2500000000000000    0.2500000000000000    0.2500000000000000 Rb
   0.5000000000000000    0.5000000000000000    0.5000000000000000 Na
   0.0000000000000000    0.0000000000000000    0.0000000000000000 Rh
   0.7666210000000000    0.2333790000000000    0.2333790000000000 F
   0.2333790000000000    0.2333790000000000    0.7666210000000000 F
   0.2333790000000000    0.7666210000000000    0.7666210000000000 F
   0.2333790000000000    0.7666210000000000    0.2333790000000000 F
   0.7666210000000000    0.2333790000000000    0.7666210000000000 F
   0.7666210000000000    0.7666210000000000    0.2333790000000000 F
