Ba2 Ca1 W1 O6
1.0
  -3.0120369999999999    3.0120369999999999    4.2685399999999998
   3.0120369999999999   -3.0120369999999999    4.2685399999999998
   3.0120369999999999    3.0120369999999999   -4.2685399999999998
Ba Ca W O
2 1 1 6
direct
   0.2500000000000000    0.7500000000000000    0.5000000000000000 Ba
   0.7500000000000000    0.2500000000000000    0.5000000000000000 Ba
   0.0000000000000000    0.0000000000000000    0.0000000000000000 Ca
   0.5000000000000000    0.5000000000000000    0.0000000000000000 W
   0.2703400000000000    0.2703400000000000    0.0000000000000000 O
   0.7296600000000001    0.7296600000000001    0.0000000000000000 O
   0.2609050000000000    0.2792070000000000    0.5401119999999990 O
   0.7390949999999999    0.7207930000000000    0.4598879999999990 O
   0.2792070000000000    0.7390949999999999    0.0183020000000000 O
   0.7207930000000000    0.2609050000000000    0.9816980000000000 O
