La8 Mg4 Mn4 O24
1.0
  -3.2472829999999999    4.5423879999999999    5.5046710000000001
  -6.3896139999999999   -4.5423879999999999    0.1381919999999990
   4.7944129999999996   -0.0170860000000000    8.1879120000000007
La Mg Mn O
8 4 4 24
direct
   0.8754529999999990    0.1245469999999990    0.7509049999999990 La
   0.1254529999999990    0.3745469999999990    0.2509050000000000 La
   0.3754530000000000    0.6245470000000000    0.7509049999999990 La
   0.6254529999999990    0.8745470000000000    0.2509050000000000 La
   0.6245470000000000    0.3754530000000000    0.2490949999999990 La
   0.8745470000000000    0.6254529999999990    0.7490950000000000 La
   0.1245469999999990    0.8754529999999990    0.2490949999999990 La
   0.3745469999999990    0.1254529999999990    0.7490950000000000 La
   0.7500000000000000    0.2500000000000000    0.5000000000000000 Mg
   0.0000000000000000    0.5000000000000000    0.0000000000000000 Mg
   0.2500000000000000    0.7500000000000000    0.5000000000000000 Mg
   0.5000000000000000    0.0000000000000000    0.0000000000000000 Mg
   0.5000000000000000    0.5000000000000000    0.0000000000000000 Mn
   0.7500000000000000    0.7500000000000000    0.5000000000000000 Mn
   0.0000000000000000    0.0000000000000000    0.0000000000000000 Mn
   0.2500000000000000    0.2500000000000000    0.5000000000000000 Mn
   0.8474860000000000    0.0853070000000000    0.2414690000000000 O
   0.0974859999999990    0.3353069999999990    0.7414689999999990 O
   0.3474859999999990    0.5853070000000000    0.2414690000000000 O
   0.5974860000000000    0.8353069999999990    0.7414689999999990 O
   0.4737550000000000    0.2994930000000000    0.5354270000000000 O
   0.7237549999999990    0.5494930000000000    0.0354270000000000 O
   0.9737549999999990    0.7994930000000000    0.5354270000000000 O
   0.2237549999999990    0.0494929999999990    0.0354270000000000 O
   0.8013169999999999    0.4926419999999990    0.4682200000000000 O
   0.0513169999999990    0.7426419999999990    0.9682200000000001 O
   0.3013170000000000    0.9926419999999990    0.4682200000000000 O
   0.5513169999999999    0.2426420000000000    0.9682200000000001 O
   0.6525139999999990    0.4146930000000000    0.7585310000000000 O
   0.9025139999999990    0.6646930000000000    0.2585310000000000 O
   0.1525139999999990    0.9146930000000000    0.7585310000000000 O
   0.4025140000000000    0.1646930000000000    0.2585310000000000 O
   0.6986829999999991    0.0073580000000000    0.5317800000000000 O
   0.9486829999999991    0.2573580000000000    0.0317800000000000 O
   0.1986830000000000    0.5073580000000000    0.5317800000000000 O
   0.4486830000000000    0.7573580000000000    0.0317800000000000 O
   0.0262449999999990    0.2005070000000000    0.4645729999999990 O
   0.2762449999999990    0.4505070000000000    0.9645729999999991 O
   0.5262450000000000    0.7005070000000000    0.4645729999999990 O
   0.7762450000000000    0.9505070000000000    0.9645729999999991 O
