Rb2 Li1 Sc1 F6
1.0
   0.0000000000000000    4.2335260000000003    4.2335260000000003
   4.2335260000000003    0.0000000000000000    4.2335260000000003
   4.2335260000000003    4.2335260000000003    0.0000000000000000
Rb Li Sc F
2 1 1 6
direct
   0.2500000000000000    0.2500000000000000    0.2500000000000000 Rb
   0.7500000000000000    0.7500000000000000    0.7500000000000000 Rb
   0.5000000000000000    0.5000000000000000    0.5000000000000000 Li
   0.0000000000000000    0.0000000000000000    0.0000000000000000 Sc
   0.2418990000000000    0.2418990000000000    0.7581009999999990 F
   0.2418990000000000    0.7581009999999990    0.7581009999999990 F
   0.7581009999999990    0.7581009999999990    0.2418990000000000 F
   0.2418990000000000    0.7581009999999990    0.2418990000000000 F
   0.7581009999999990    0.2418990000000000    0.7581009999999990 F
   0.7581009999999990    0.2418990000000000    0.2418990000000000 F
